Al Co Ni
 1.0000000000000000
    12.1277664900000008    0.0000000000000000   -0.0011702800000000
     0.0000000000000000    4.0507097300000003    0.0000000000000000
    -2.0913220400000001    0.0000000000000000    7.3445026000000002
 Al  Co  Ni 
  18   5   3
Direct
  0.3062956329202540  0.5758952676123356  0.0937189819449711
  0.3165631333794461  0.5759337927686816  0.4985061362901039
  0.1399487895064539  0.5759003491457121  0.7674963737940018
  0.5018784803316279  0.5759039688693300  0.7795342462754163
  0.3896704701538238  0.0758840073912435  0.9155170244053690
  0.4373316830307813  0.0758715046017977  0.3060270188829705
  0.2018782313448542  0.0759392129156391  0.2773923243064952
  0.2081066057241150  0.0759346572638230  0.6187689071750831
  0.7091373555212562  1.5758747180747705  0.5089921246328624
  0.9236964356284010  0.5758964736569887  0.5040223251767597
  0.8415185688852730  1.0759005147972061 -0.0401080211456490
  0.6245180153255384  1.0758917631534661  0.6577003046208533
  0.7556760535754520  0.0758742730528425  0.2557327290078700
  0.5469225022404478  0.5758573974024332  0.1540739267826014
  1.0030933651527514  1.0758972534147129  0.7917836749423353
  0.0715584911636119  0.5759197126570277  0.0739419660843718
  0.7117287825741034 -0.4241096192291643  0.9840714607002625
 -0.0077290005781560  0.0759155804804152  0.3207821406082357
  0.5958996819157201  0.0758719168218606  0.9665817765212976
  0.1990844773600572  1.0759014575894470 -0.0380033270205693
  0.4189301495488175  0.0759015287631749  0.6156117102390665
  0.9002832568387248  0.5759124208010070  0.1706602428420657
  0.1121202365625254  0.5759245936179368  0.4258656883364179
  0.8157403609784598  0.0758732257249341  0.5880826399154512
  0.5076209070362023  0.5758872955477022  0.4547512248986137
  0.8916522282117163  0.5758873156967642  0.8117814267304010
Cartesian
 -0.0081117600817019 -0.0046151378451887  0.0023655181449908
  0.0028830951754320 -0.0012848759196538 -0.0060331291851507
  0.0026102188043249 -0.0091022935871910 -0.0012205612631283
 -0.0017916951903988  0.0045455884397890 -0.0057794981917323
 -0.0012256322400467 -0.0051760623111046 -0.0046323010451108
  0.0084382716924152  0.0017923665476449  0.0077001819028922
 -0.0033210591170868  0.0030818611764173  0.0050165213216563
 -0.0077439028781400  0.0035483249097224 -0.0037763757874785
  0.0117929501731692 -0.0014438817407397  0.0028188053311876
  0.0060834263585167 -0.0067719351469917  0.0088478393520549
  0.0040892787716401 -0.0053977535190702 -0.0022957496544107
 -0.0016635091134541  0.0005100743920836 -0.0006233495472672
  0.0074753626773662 -0.0016008147385221  0.0051653127760878
  0.0065179185962515  0.0015684501132881  0.0060463798799433
 -0.0047250016761903 -0.0043656930723769 -0.0046826126964672
 -0.0011014472163386  0.0021757603725001  0.0086246343935978
 -0.0108217700056322  0.0003498374971451 -0.0005384627313886
  0.0058757651430800 -0.0016176746540468 -0.0043233921749667
 -0.0079024588725849 -0.0025671225902658  0.0040237251598331
  0.0003290120749119  0.0033121266528244 -0.0019812508209870
  0.0027033160128266  0.0148843997873303 -0.0027198260600068
  0.0019963809684652  0.0046829469212365 -0.0020666629276656
 -0.0057317211235524 -0.0075114294616350 -0.0064107442364557
  0.0008859351831935  0.0045506062131257  0.0022666616189657
  0.0000893669762957  0.0141419643373255 -0.0048305166039040
 -0.0047452216296338 -0.0027210862844458  0.0021717867296984
