26
Lattice="12.12776649 0.0 -0.00117028 0.0 4.05070973 0.0 -2.09132204 0.0 7.3445026" Properties=species:S:1:pos:R:3:momenta:R:3:forces:R:3:energies:R:1 energy=-131.26675415039062 stress="-0.011858426965773106 2.2510819235321833e-06 0.007024922873824835 2.2510819235321833e-06 0.006975801661610603 2.0911073761453736e-07 0.007024922873824835 2.0911073761453736e-07 0.03403842821717262" free_energy=-131.26675415039062 pbc="T T T"
Al       3.51868534       2.33278456       0.68796085      -2.22818454      -1.26771240       0.64977402       0.00014547       0.00000828       0.00019705      -3.91545703
Ni       8.66323843       0.30734041       4.31821983       1.72273151      -0.76774997      -3.60496658       0.00012543       0.00031779      -0.00042307      -6.61689758
Al      10.50940745       4.35814747       5.81408336       0.71698979      -2.50026994      -0.33527073      -0.00022859       0.00002277      -0.00053289      -3.98766185
Al       6.31073020       2.33263116       1.13095630      -0.49215306       1.24860817      -1.58754554      -0.00048031       0.00025148       0.00029368      -4.05164649
Co      10.56151959       2.33285405       1.25236101      -0.73534223      -3.10548063      -2.77924034      -0.00016000      -0.00009821      -0.00039740      -7.39045525
Al       6.19854552       4.35812523       4.82975074       2.31787261       0.49233747       2.11512990      -0.00000837      -0.00015774      -0.00000204      -4.18242647
Co       3.79324469       0.30745506       4.52087154      -1.99253489       1.84902337       3.00976087       0.00013503       0.00047422       0.00001456      -7.51805878
Al      10.14830168       2.33278945       3.70071229      -2.12713943       0.97467413      -1.03731645      -0.00011079       0.00010225      -0.00016930      -4.25980426
Al       6.57367014      -1.71794496       7.22668248       3.23935484      -0.39661367       0.77428553       0.00016905      -0.00013031       0.00038478      -4.10283186
Al       7.53578581       6.38341105       3.73746409       1.67103026      -1.86015378       2.43037500       0.00011788       0.00019777       0.00021722      -3.95097210
Al       1.86821537       0.30760771       2.03707239       1.12326643      -1.48268573      -0.63060961      -0.00053197      -0.00036038       0.00035607      -3.93613221
Al       4.66385548       0.30733344       2.24710444      -0.45694217       0.14011014      -0.17122521      -0.00016467       0.00047024       0.00051408      -3.91004087
Co       2.49392725       4.35816450      -0.27934852       4.48499122      -0.96044036       3.09903124       0.00015239      -0.00007725      -0.00041831      -7.69012070
Al       4.45640787       2.33281981       5.72470396       1.79037907       0.43083083       1.66085412      -0.00039314      -0.00048448       0.00034668      -4.19858862
Ni       9.11605362       2.33275235       5.96108732      -2.82332312      -2.60862600      -2.79799450      -0.00003985       0.00016062      -0.00004754      -6.53950834
Al       0.09218416       2.33280515       5.63671533      -0.30255181       0.59765027       2.36906378      -0.00004561       0.00065016      -0.00019804      -4.00406744
Al       2.79666689       2.33294062       3.66090915      -2.97258553       0.09609536      -0.14790802       0.00047196      -0.00055287       0.00052176      -4.21165849
Al       1.22982327       0.30758926       4.54430630       1.61398869      -0.44435210      -1.18757403      -0.00003972      -0.00077451      -0.00030522      -4.14523698
Al      -0.76459427       0.30751198       2.35599431      -2.17069249      -0.70515188       1.10525979       0.00040321      -0.00014999      -0.00044611      -4.17590167
Co       5.20549842       0.30733511       7.09836500       0.19739728       1.98717569      -1.18869049      -0.00006426       0.00047431      -0.00008041      -7.55837536
Al      10.28961949       4.35816068      -0.29555828       0.74256227       4.08853186      -0.74709734       0.00045335      -0.00024617      -0.00014210      -4.13464476
Al       8.62984323       0.30734466       1.87734534       0.54837732       1.28633858      -0.56768276      -0.00012076       0.00011195       0.00014890      -4.10804702
Al       0.71320821       2.33288358       0.54298322      -1.57442186      -2.06328230      -1.76093980       0.00024389       0.00007283      -0.00017031      -4.18694974
Ni       5.20527657       2.33275227       3.33932750       0.52937151       2.71911687       1.35439490       0.00028653      -0.00028469       0.00007092      -6.60931396
Al       2.81119154       0.30738409       6.72356114       0.02454783       3.88459545      -1.32687386      -0.00020707       0.00017274       0.00055023      -4.13099815
Co       0.46914575       2.33290336       3.12764044      -2.84698927      -1.63256936       1.30300627      -0.00010880      -0.00017071      -0.00028276      -7.75095749
