Al Co Ni
 1.0000000000000000
    12.1277664900000008    0.0000000000000000   -0.0011702800000000
     0.0000000000000000    4.0507097300000003    0.0000000000000000
    -2.0913220400000001    0.0000000000000000    7.3445026000000002
 Al  Co  Ni 
  18   5   3
Direct
  0.7508989469310109  0.9510074239656062  0.7417029172675955
  0.8166388799605357  0.9510243973777383  0.1351286287032674
  0.1008267583090063  0.4510154622960780  0.5562115889230698
  0.4088055224851491 -0.0490091414187024  0.4231526859968378
  0.3834953001895574  0.9510080317464321  0.7436175319617292
  1.0158151563992928  0.4510269766990782  0.1790939179617587
  0.2747459999514742  0.4510191022900742  0.8538659278026867
  0.8875267321862755  0.4510191701371410  0.8121291097578900
  0.1901512516452446 -0.0489892501497200  0.4051045433002096
  0.5407458205808164  0.4509875988978184  0.6509774024465362
  0.2742535779706922  0.4510086955929098  0.2152025424346450
  1.0079358386447745  0.9510245752304720  0.6930720276569177
  0.8733142444482410  0.4510256439596208  0.4277128295484670
  0.1759696689907829  0.9510050546072458  1.0152747786391860
  0.6547700035292880  0.4510064896907549  0.1999137254377394
  0.5987797137751846  0.9510003485029921 -0.0565826015046021
  0.6245733470862064 -0.0490015653604176  0.4066913558420509
  0.4233602981025025  0.9509984571561604  1.0967006556616750
  0.4778923221028332  0.4510062649989535  0.9280666058899548
  0.7113228421227991  0.4510141625001037  0.5504535067474811
  0.0929126070044654  0.4510108705252053 -0.1031426237294191
  0.4848976350869833  1.4509889318136224  0.3168107698577996
  0.9934142203680569  0.9510159280106608  0.3735665162310258
  0.7095540991841489  0.4510068825884357 -0.0813406730627906
  0.3212743477985859  0.4510038347095636  0.5530685435038121
 -0.0324510402633309 -0.0489840146831970  0.9845418054475835
Cartesian
 -0.0109547023976803  0.0027864311419752  0.0107696068371498
 -0.0015069663230080 -0.0005327677050084 -0.0074973889561980
  0.0044148755892458 -0.0074005259267143 -0.0119191234448888
  0.0065052065046109 -0.0055481332931817  0.0015639807882566
  0.0070290060957229 -0.0058214992710360  0.0065335524075427
 -0.0020860008184896  0.0006010340130099  0.0016933950324481
  0.0051269844284739  0.0027822615108210  0.0065126158793405
 -0.0142435898238789  0.0019862514250272 -0.0014346509985524
 -0.0210096481339578  0.0077889484655271  0.0060686823518555
  0.0035527188523010  0.0074047732113513  0.0015152262686964
  0.0083006111855221  0.0128721818098144 -0.0112317697746373
 -0.0007894074369239 -0.0108715196060142  0.0015027992061025
  0.0050330440285913  0.0008240222734113 -0.0110411212747395
 -0.0029385363281942 -0.0127371539003576  0.0214515643553209
 -0.0066278565116767 -0.0035582439151532 -0.0072017917628487
 -0.0019025429888575  0.0054845798131512 -0.0049876854174867
  0.0057576139935162 -0.0078079641225676 -0.0053367147524648
 -0.0073545755966107  0.0038567260539828  0.0035710241455572
  0.0126733029123143  0.0005351855326732  0.0143693679402013
  0.0016595993910900 -0.0016392451684706 -0.0041291244924480
  0.0045807138419694 -0.0061415521490189  0.0041648895480615
 -0.0156429663485933  0.0138854935884997 -0.0115014300009603
  0.0005932795395627 -0.0007263819164926  0.0062004221977288
 -0.0122224253674983 -0.0070827473149624 -0.0139993429722724
  0.0013378101172539  0.0038651880773027 -0.0029879531140252
  0.0084730662162965  0.0052681633224782  0.0025594962475595
