Al Co Ni
 1.0000000000000000
    12.1277664900000008    0.0000000000000000   -0.0011702800000000
     0.0000000000000000    4.0507097300000003    0.0000000000000000
    -2.0913220400000001    0.0000000000000000    7.3445026000000002
 Al  Co  Ni 
  18   5   3
Direct
  0.0540482191379952  0.8596113417171639  0.3105221935357214
  0.2954128663557872  0.8596045781204138  0.6050410021092218
  0.3670190955507270  1.3596155811665507  0.8243371984747978
 -0.1285794984484595 -0.1403974830441682  0.8775450909113391
  0.4356426489636171 -0.1403798444490130  0.1974481217614787
  0.1814466266242614  0.3596138447178228  1.3872158028024859
 -0.0554735087911299 -0.1404052138667590  0.5781232132754787
  0.1369970383904207  0.3595969930714608  0.7254355880148650
  0.6809169003537355  0.8596349588056679 -0.0525414761757537
  0.5618851779041463  0.3596124096538785  1.0783032882828076
  0.5626738736917817  0.8596116420127485  0.5877949286704163
 -0.2053999473506639  0.3595698963767038  0.3671009658304543
  0.4007023051864977  0.3596000631248688  0.4445892174073663
  0.2568895998841077  0.3596193313263298  1.0877809014496924
  0.9314704306584197  0.3595987692815257  1.1014555005325224
  1.0901864102803898 -0.1403946944938197 -0.0396375744726055
  0.7409617900586994  1.3596212307953968 -0.3079629441303803
  0.6630654121602850 -0.1404181320778513  0.3113220584648589
  0.2707058883297749 -0.1403898668282997 -0.0929879115177722
 -0.0062890801881369  1.3595858640500171  0.4320989431905397
  0.2531684923656022  0.8596115223623267  0.2741775810246184
  0.9493779112425873  1.3596041552907556  0.7848440590976238
  0.5889015511250015  0.3595698645771064  0.4032401380209021
  0.5588181622774484  0.3596025030147565  0.7539396986636879
  0.4813123599444610 -0.1403792441897832 -0.1029423821601639
  0.8459721940904570  0.8595777487921924  0.2208059921159078
Cartesian
  0.0023682414490107 -0.0037670303528724  0.0027176398301298
 -0.0131793073093530  0.0031406257508584 -0.0006138354476461
  0.0011047645402802  0.0005137737089699  0.0061909064525212
 -0.0024083977298294 -0.0007100246834893  0.0081043821237057
  0.0046836215199860  0.0068418343809143 -0.0003976037043371
  0.0038765918991847 -0.0004190382983452 -0.0016474504724460
  0.0014700595930710  0.0052412893914949  0.0004229061456765
 -0.0053985294081273  0.0026956639688418  0.0018634588927367
  0.0003482220517055  0.0094524015743276 -0.0028180633227190
  0.0066916303310956  0.0026559798766278 -0.0050247130945957
  0.0084066850805738 -0.0064731419109393 -0.0030717113278481
 -0.0065056880502228  0.0014276914213005 -0.0052638516340235
 -0.0039935940815038  0.0021446460758731  0.0070327797588199
 -0.0039829475055245  0.0012865058906003  0.0072446004627259
 -0.0013748136673510  0.0032313657423595 -0.0111912241883611
  0.0036979354843852 -0.0036941681173885 -0.0058262461581306
 -0.0071527774678325  0.0055530299323568  0.0085286802592542
 -0.0027883552743573 -0.0050032542505877 -0.0044302237247907
  0.0018290080401940  0.0064474667701399  0.0085944786525374
  0.0046125294353813  0.0008824342605924 -0.0040618228109931
 -0.0042907449997159  0.0036408074586830  0.0095647509262526
 -0.0101677031042163 -0.0055021671898740  0.0011380713756561
  0.0030101630798969 -0.0064618939647609  0.0027744304801826
  0.0000810266443965 -0.0111094907775774  0.0057190734492027
 -0.0045497439409711 -0.0009733779612843 -0.0013671830741993
 -0.0086971866938140 -0.0076024676927468 -0.0037802360488822
