26
Lattice="12.12776649 0.0 -0.00117028 0.0 4.05070973 0.0 -2.09132204 0.0 7.3445026" Properties=species:S:1:pos:R:3:momenta:R:3:forces:R:3:energies:R:1 energy=-131.38320922851562 stress="-0.025120753794908524 3.846370873361593e-06 -0.0003264624101575464 3.846370873361593e-06 -0.0034536554012447596 -1.7564124163982342e-06 -0.0003264624101575464 -1.7564124163982342e-06 0.03803395852446556" free_energy=-131.38320922851562 pbc="T T T"
Co       6.29875551       1.45651315       2.96090906       1.42087315      -2.26010413       1.63050160      -0.00005099       0.00070155       0.00017305      -7.73210192
Al       7.39042780      -0.56879309       2.28572970      -3.62016733       0.86268500      -0.16861182      -0.00033513      -0.00029901       0.00035164      -4.01773407
Co       2.49697474       3.48203676       2.01340168       0.66282527       0.30824867       3.71435638      -0.00077827       0.00006268      -0.00031736      -7.77972794
Al       9.63026126       5.50743095      -2.26270178      -0.66155243      -0.19503363       2.22615792       0.00007978      -0.00018363      -0.00022103      -4.07587887
Ni       9.79797679       3.48189995       1.62072016       2.79859730       4.08819098      -0.23757954       0.00023743       0.00011117       0.00055321      -6.65304804
Ni       6.05252958      -0.56863557      -0.75662386       2.31637411      -0.25038732      -0.98439860       0.00046836      -0.00031313       0.00011754      -6.55298185
Al      13.30442115      -0.56869816      -0.29239409       0.40380436       1.43970728       0.11616627       0.00042680       0.00005367       0.00010828      -4.05576541
Al       8.99315771       1.45663023       8.08855271      -1.48289886       0.74046036       0.51186552       0.00024089      -0.00000132       0.00002630      -4.04812838
Al       0.84059691       1.45671352       7.98890903       0.09565162       2.59643960      -0.77408171       0.00040949      -0.00030216      -0.00014817      -4.10190131
Al       3.92984476       1.45663547       3.26481773       1.83809520       0.72955971      -1.38021686      -0.00057795       0.00017336       0.00007249      -4.08363439
Co       9.87247194       5.50736178       5.76317819       5.04375646      -3.88368911      -1.84293377      -0.00030742      -0.00006743       0.00049242      -7.60842752
Al       5.59470886       3.48203724       4.31640290      -1.78701951       0.39216643      -1.44590480       0.00073169      -0.00060822      -0.00025829      -4.11226512
Al       0.00608227       3.48203603       2.28056781      -1.09698321       0.58910362       1.93180407      -0.00028261      -0.00042392      -0.00021443      -4.09991266
Al       8.36788231       3.48213169      -0.38668787      -1.09405875       0.35338478       1.98998819      -0.00037922      -0.00029098      -0.00019090      -3.91622402
Co       3.47752547      -0.56867860      -0.68326676      -0.82484657       1.93872159      -6.71439560      -0.00020780       0.00013524      -0.00015376      -7.58932209
Ni       5.20048547       1.45664536       5.53665810       2.20962181      -2.20737070      -3.48134808       0.00012035       0.00044315       0.00033559      -6.62310505
Al       0.14434866       1.45662304       5.32780324      -1.96476573       1.52533795       2.34270656       0.00009343       0.00004574       0.00004289      -4.23932220
Al      -1.88181158      -0.56874077       4.24609236      -0.76592134      -1.37432242      -1.21691913      -0.00065597      -0.00012944       0.00016406      -4.21797945
Al      -0.70057266       1.45669130      10.18819773       0.50240236       1.77102696       2.36078043       0.00084221      -0.00017449      -0.00036849      -4.04786517
Co      -0.97993054       5.50728769       3.17355917       2.76737797       0.52943383      -2.43697068      -0.00082469       0.00054664      -0.00013147      -7.62210035
Al       4.87044471      -0.56863800       1.44964842      -1.17860632       1.00007777       2.62730036       0.00025490      -0.00009207       0.00005260      -4.16089298
Al      -3.39461152      -0.56870945       6.44528268      -2.79292270      -1.51136668       0.31261194       0.00043679       0.00005591       0.00069470      -3.96297576
Al       2.72716734       5.50740806       6.05391718       0.82684877      -1.77498990       0.76209639      -0.00027698      -0.00013110      -0.00031615      -4.13192798
Al       2.31736268       3.48200863       4.44337950       0.02225686      -3.05161831       1.57094773       0.00001395       0.00017045      -0.00039097      -3.95680048
Al       4.55933280       1.45668549       7.91894374      -1.24974963      -0.26737301      -0.37554565       0.00028040       0.00003104      -0.00058519      -3.95305611
Al      -3.25876894       1.45651328       2.69641437      -2.38899286      -2.08828920      -1.03837681       0.00004040       0.00048647       0.00011160      -4.04011871
