26
Lattice="12.12776649 0.0 -0.00117028 0.0 4.05070973 0.0 -2.09132204 0.0 7.3445026" Properties=species:S:1:pos:R:3:momenta:R:3:forces:R:3:energies:R:1 energy=-131.71722412109375 stress="0.001815637806430459 3.7606375826726435e-06 0.0013494894374161959 3.7606375826726435e-06 0.005667584016919136 6.44912233838113e-06 0.0013494894374161959 6.44912233838113e-06 0.014630524441599846" free_energy=-131.71722412109375 pbc="T T T"
Al       9.57654775       2.95941159       0.86727641       2.82702819       0.97960932      -0.25879568       0.00019965       0.00046263      -0.00026852      -3.95550181
Co       1.05696340       2.95928146       4.39541874       2.11608688      -3.78358049      -1.69859128      -0.00037858       0.00025260       0.00045709      -7.61593437
Ni       9.76776691       0.93390178       3.98689980       0.14119684       1.68984588       1.07353448      -0.00040099       0.00015720       0.00013518      -6.43699598
Al       3.14468769       0.93401669       1.01763851       0.62918545      -4.38436729       1.11438780       0.00000633      -0.00012414       0.00020450      -3.78371979
Al       8.28628678       0.93410902       2.14632009       2.14215722       1.05977469       0.61209714      -0.00017858      -0.00011503      -0.00027284      -4.00760628
Al       5.82914736       2.95937032       5.17259057      -1.22411891       0.59890874      -0.69176232      -0.00024125       0.00004363      -0.00023823      -4.15889098
Al       4.78183754       0.93403624       3.12403823       0.17552303       3.49251041       1.78659487       0.00009359       0.00012941       0.00005366      -4.05824758
Al       2.67012558       2.95936330       2.69907676       0.19352018       0.36114251       2.54751235       0.00062540      -0.00001170      -0.00056069      -3.94816042
Al       3.75274940       0.93411249       7.89035559      -1.69322138      -0.15303449       3.37552754      -0.00007513      -0.00026178       0.00004061      -4.21296503
Ni       5.19294406       2.95948674       7.60974321      -0.09933381       1.55012739      -1.46759511       0.00002520      -0.00013051       0.00045198      -6.56281471
Al      12.23613754       2.95939789       0.60131794       1.41633889       2.09946908       1.40657580       0.00019729      -0.00010039       0.00017206      -4.05472924
Al      -0.23263786       0.93393860       5.14139269      -2.92451333       0.28892056      -0.78084513      -0.00009446       0.00016282      -0.00034025      -4.24417831
Co      10.70356980      -3.11661621       1.35029340      -1.08236560       1.38481331      -0.49665593      -0.00003782      -0.00043571       0.00036734      -7.67271996
Al       0.59951030       2.95931139       6.77959727      -1.35820715      -3.42444537       0.39704517       0.00004185       0.00014794      -0.00003874      -4.02500965
Al       6.69245921       0.93408822       6.76361578       1.64954543       1.14442663       1.43599787       0.00006320      -0.00026032      -0.00016023      -4.06558992
Co       6.98598605       0.93396761       4.25165095       0.85720983       2.13400226      -0.65922686       0.00015671       0.00023737      -0.00028826      -7.68866396
Al       2.39237007       4.98467104       4.59733692      -4.07713233       0.43389110      -1.07906509      -0.00001770       0.00018004       0.00035561      -4.11026360
Al      11.46510168       0.93400202      -0.99465239       1.59658682      -2.03222405       0.55685132       0.00024528      -0.00003825       0.00005079      -4.23461868
Al      -1.12712559       2.95927754       3.14672998       0.53821377      -4.15045136       1.28563836      -0.00013186       0.00021933       0.00021896      -4.32510425
Al       3.15702041       7.01009284       6.09441347      -0.09887937      -0.65248624      -0.91545327       0.00036543      -0.00012794      -0.00012922      -4.16506888
Al       8.47092503       2.95929395       4.57718073       4.75501116       2.17382846       0.34947874      -0.00000075       0.00010632       0.00009239      -4.24891426
Ni       4.55699838       0.93400852       5.58972593      -4.07959381       4.01297322      -2.48194486      -0.00048654       0.00012925       0.00020532      -6.62654161
Al      12.86310726       0.93401257       2.50081120      -1.07484090       1.26440902      -3.05510975       0.00022974      -0.00006710      -0.00021414      -4.01588155
Co       4.55068577       2.95941211       1.24763210      -3.02641988      -4.01495739       1.55153837      -0.00015943      -0.00009493      -0.00015655      -7.73333406
Co      -1.47896937       2.95932274       5.58759134       1.02839060       2.22604357      -3.05462978      -0.00016002      -0.00004588      -0.00033335      -7.64082623
Al       6.56034609       2.95948939       2.59738985       0.67263230      -4.29914959      -0.85310491       0.00011359      -0.00041476       0.00019567      -4.12493731
