26
Lattice="12.12776649 0.0 -0.00117028 0.0 4.05070973 0.0 -2.09132204 0.0 7.3445026" Properties=species:S:1:pos:R:3:momenta:R:3:forces:R:3:energies:R:1 energy=-131.01205444335938 stress="-0.015241914428770542 -7.347600785578834e-07 0.006569835357367992 -7.347600785578834e-07 0.004465756472200155 6.883890364406398e-07 0.006569835357367992 6.883890364406398e-07 0.016734618693590164" free_energy=-131.01205444335938 pbc="T T T"
Al       7.55558743       3.85225503       5.44656024      -3.00910016       0.76539280       2.95825705       0.00032112       0.00025776       0.00007799      -4.13255025
Al       6.72415711      -0.19849112       2.98621479      -0.41394211      -0.14634367      -2.05942558      -0.00004545       0.00034883       0.00011224      -4.08523013
Ni       2.73969583       1.82688562       4.06163737       2.63801395      -4.42202509      -7.12201585      -0.00015467       0.00003598      -0.00029723      -6.63864756
Al       7.38019299       3.85222636      -0.41627180       1.78688724      -1.52399291       0.42960317      -0.00016569       0.00016108      -0.00001974      -4.03400756
Al       7.52281373       1.82689638       1.46750061       1.93076750      -1.59908264       1.79467345       0.00004275      -0.00010581      -0.00021036      -4.12199189
Al       0.01085253       3.85224543       7.45648232      -0.57299461       0.16509545       0.46515141       0.00055200       0.00031020      -0.00036513      -4.00685050
Co       7.47558178       1.82692746       4.04197476       3.07603539       1.66927265       3.90737230      -0.00044443      -0.00031265       0.00001296      -7.54765844
Al       9.69686596       1.82697396       3.14031597      -3.91251052       0.54559487      -0.39407812      -0.00021063      -0.00005236       0.00029639      -4.13006260
Al      10.77457368       3.85232450       5.08908974      -5.77105002       2.13951281       1.66698029      -0.00012740      -0.00019206       0.00014693      -4.08432533
Al       2.84086058       3.85221870       8.05422537       0.97588109       2.03398536       0.41621100       0.00009312       0.00008298       0.00034934      -4.10806872
Al       5.19663565       1.82681985       4.78047240       2.28005924       3.53580434      -3.08520661      -0.00000548       0.00010485      -0.00006863      -4.29695274
Al       1.45890592      -0.19844123       2.97506884      -0.21683894      -2.98625104       0.41279746      -0.00077862       0.00004808      -0.00040905      -4.00154807
Al       2.87602553       1.82690531       1.58023468       1.38250525       0.22634714      -3.03283819      -0.00000338      -0.00015202       0.00003476      -3.91523220
Al       9.06529346       1.82694774       5.96364570      -0.80717393      -3.49871411       5.89243809       0.00029473      -0.00021297       0.00043948      -4.20577647
Al       1.54634670       1.82694747       6.27089900      -1.82057744      -0.97739874      -1.97822925       0.00064242      -0.00021970       0.00007360      -4.01314594
Al      11.94502596       1.82697936       1.31416696      -0.52260136       1.50653568      -1.37004589       0.00010905      -0.00025991      -0.00002433      -4.21619202
Al       3.09579772       3.85225749       5.46105210       1.58153426      -2.14473614      -1.46591926      -0.00008695       0.00002979       0.00059936      -3.91695167
Co       1.34252684       1.82691412      -0.75764000      -4.41252263       2.31391883       2.14250634      -0.00057445      -0.00006615      -0.00005991      -7.67674255
Al       4.07294938      -0.19852181       3.10736759       3.48117515       0.14700782       3.94705997       0.00041395       0.00014704      -0.00040468      -3.93119122
Ni       8.77541597       1.82689797      -0.59823716       0.99165792      -0.97949569      -2.46726953      -0.00008465      -0.00006918      -0.00008342      -6.49157095
Co       5.21817194       5.87753498       2.32625006       2.74828958      -3.68474530       2.49880760      -0.00006358       0.00006760      -0.00011719      -7.53899002
Al       0.05958583       1.82693272       4.08497947      -4.29689925       3.81414661      -3.15927842      -0.00023985       0.00002464      -0.00031323      -4.13021733
Ni      -2.45255262      -0.19842002       7.23100783       0.35450143      -0.43403389       3.70492892       0.00038081       0.00011987       0.00001285      -6.46635103
Al       9.62140816       3.85232378       0.99149687      -3.35732554      -1.94552944      -3.84541940       0.00000355      -0.00009018      -0.00011922      -4.10482384
Co       3.85488034       1.82689547       6.81562833       0.80264556       2.31899579      -1.79268138      -0.00037198      -0.00009785       0.00027625      -7.57252741
Co      11.26664780       3.85228947       2.74249768       5.08358313       3.16073845       1.53562024       0.00050377       0.00009232       0.00005991      -7.64444065
