Al Co Ni
 1.0000000000000000
    12.1277664900000008    0.0000000000000000   -0.0011702800000000
     0.0000000000000000    4.0507097300000003    0.0000000000000000
    -2.0913220400000001    0.0000000000000000    7.3445026000000002
 Al  Co  Ni 
  18   5   3
Direct
  0.5539198290221985 -0.2065748493815723  0.3397944898338458
  1.0366364064684983  0.2934960604218997  0.4705289606680328
  0.1500239324864746  0.7934854177383084  0.0231986953235323
  0.1580500579943567  0.7935033153253782  1.3736414308080913
  0.6332020896522648  1.2934365336623246  0.8540072815147137
  0.8398934679052775  0.2934932929920401  0.1474392093755424
  0.2539527811515280  1.2934966172618836  0.2295377996095339
  1.0331464276839837  0.2934933415501145  0.8206553952119040
  0.4453850150344283  0.2934284705877163  0.5151881099200676
  0.2514072700067259  0.2934083319789871  0.8116568835574790
  0.4334337302305655  0.2933909332952225  0.1161938224372437
  0.9257686398635848  0.7934967309096238 -0.0012002756211091
  0.7171118581895553  1.2934763597341759  0.5026747266066008
  0.3413664657209806 -0.2065845951037669  0.6669395959109652
  0.9064132887807002  0.7935004764988689  0.6100513907805295
  0.7491541731852823 -0.2065175512321625  0.2597113012333881
  0.5359314559747410  0.7934224789693558  0.9795308270237881
  0.7329879187604034  0.7934626744621848  0.7443949953511655
  0.3544377676891905 -0.2065157290271269  0.3459966167140147
  0.6353394887542442  0.2934614570004557  0.1835054678087819
 -0.0455300537862017  0.7935012587739533  0.3226860107900021
  0.3306056196818229  0.7933812058650531  0.9760439763703164
  0.8399911302459676  0.2934700170829966  0.8089455018235129
  0.5365917409087809 -0.2065886453630068  0.6535013271310592
  0.0493978022194694  0.2934983168474996  0.1469473944871719
  0.1218769542475732  0.7934515347333462  0.6830405904848674
Cartesian
 -0.0024014608892695  0.0078762208463164 -0.0057030444616998
  0.0059232151599019 -0.0047333783545588 -0.0038684891717658
 -0.0088826877923638 -0.0026675797354331 -0.0013879651036553
  0.0068324393758554 -0.0086935978499878 -0.0010733020980757
  0.0031451562508447 -0.0018911518000592 -0.0077195210331421
  0.0028725322067366 -0.0015914596082457 -0.0001916271808275
  0.0054842527988321  0.0075719145069801  0.0052119198247431
  0.0130605656506536 -0.0049609648451357  0.0030773100192365
  0.0000155541066215  0.0030992314008408  0.0017096711430089
 -0.0075310959512559 -0.0027548336242195 -0.0029651562558715
  0.0000485468789413  0.0039331974989530  0.0052029720695583
 -0.0087923573209222  0.0036920489665531 -0.0058179473682865
 -0.0045045442421388  0.0032579219338117 -0.0009575970211806
 -0.0171687781170113  0.0004978631017172  0.0062651502877627
 -0.0171077903912015 -0.0049163803957745  0.0108775974743675
  0.0049672382657163  0.0000460222341221 -0.0032541981544379
 -0.0044421740453699 -0.0027600020277082  0.0102499453565024
  0.0025203477847156  0.0008924392791527  0.0002515126451187
  0.0041947641464209  0.0013748582557055  0.0024909361207929
  0.0117343401382917 -0.0023672165075745 -0.0028471582149586
 -0.0049491350948721 -0.0039315292237685  0.0017239312097075
 -0.0028311490077398 -0.0020346260877285 -0.0009479112226320
  0.0086946742715052  0.0074809592390695  0.0046697262873217
 -0.0116210806430871  0.0011982932164328 -0.0201240523838676
  0.0040580201389169 -0.0032078430680593  0.0023504826141850
 -0.0020771542345025  0.0080233260815354  0.0002682331874264
