Al Co Ni
 1.0000000000000000
    12.1277664900000008    0.0000000000000000   -0.0011702800000000
     0.0000000000000000    4.0507097300000003    0.0000000000000000
    -2.0913220400000001    0.0000000000000000    7.3445026000000002
 Al  Co  Ni 
  18   5   3
Direct
  0.8100231548692572  0.7305908798631103  0.1182141818199022
  1.1193798742265531  0.2305799794812261  0.3406794612445424
  0.8059629274928333  0.7305618379126299  0.6233402288919909
  0.4034146165528296  1.7305838506467377  0.8298568201821818
 -0.0190563794354918  0.7305577877898728  0.4284439468150780
  0.9220316920584911  0.2305773749181893 -0.1352812308851956
  0.3052126516327771  1.2305673257107912  0.6260048302891946
  0.7106512588745184  0.2305986551153634  0.9210218588467347
  0.2086160712230866  0.7305661450532519  0.9231178448989903
  0.1015347706006526  0.2305617188846252  0.7000489739745086
  0.6019364382868900  0.7306100878588063  0.3537467993846010
  0.4947049462716345  0.2306046469652724  1.0744001284220428
  0.2835454462836619  0.7305789583802617  0.3675413747894899
  0.4676502141524303  0.2305858228099146  0.4254318744113846
  0.6021080228926944  0.7305806924114113  0.7043765228161444
  0.7336625899658098  0.2306037917743394  0.2923518165169372
  0.2831973353609090  0.2305809984773196  0.1386029775484511
  1.0230821732780899  0.7305874983569468  0.0820362203694283
  0.0092417074138334  0.7305689455396736  0.7607870077607604
  0.6758750160155775  0.2305688799128355  0.5789965838863020
  0.1903571699659343  0.7305587562120147  0.5984941046638639
  0.4045328183750918  0.7305910080802553  0.1699373782393563
  0.9142957950159083 -0.7694000352850687  0.1839965828922700
  0.6068714048155619  0.7306094322052117  1.0362108693224392
  0.8990379730171045  0.2305526296639589  0.5429846161141177
  0.5070037184507197  0.2305789811162353  0.7611569598254813
Cartesian
  0.0102918649630519  0.0035662915740534 -0.0009421519795039
  0.0035269894953825 -0.0063062857826837 -0.0028311283658510
  0.0002363014333338  0.0028280590801220  0.0017966247474430
  0.0022905649409896 -0.0159613958566613  0.0040569559343299
  0.0077985755363262  0.0038581355539620  0.0022283545262754
 -0.0044564347114029  0.0021803418521442 -0.0025183775730395
  0.0006389958479760  0.0127145691903204  0.0065041421326172
  0.0007045149236894  0.0013147481188794  0.0092742807557584
 -0.0061642136647730 -0.0005571257992932  0.0122886902122241
 -0.0001662411276561  0.0025942317639047 -0.0024561090003267
  0.0051562162120108  0.0076431683097389  0.0051206734628777
 -0.0106467619895992  0.0010518223239817 -0.0028426857076733
 -0.0018040337259353  0.0023081386882100 -0.0008278016621780
 -0.0049445862014040 -0.0124667767648158  0.0014454525963476
  0.0060052102883432  0.0041663130239704  0.0052277852162608
  0.0014287551615532  0.0035568499680878 -0.0010987668918329
 -0.0148428995168899  0.0015795910970476 -0.0039283627339326
  0.0058124131979632 -0.0073983611361084  0.0020272307932926
  0.0019593803183363 -0.0151098192315540  0.0046803977518982
 -0.0003599727722996 -0.0023753920394812 -0.0033327299313898
  0.0173107339189839  0.0079138754252883  0.0012722858575696
 -0.0068274465083797  0.0067159529241769 -0.0041536845492878
 -0.0039129844816587  0.0046031118217067 -0.0111222014325501
 -0.0050442877372993 -0.0066919334209779  0.0025860278088676
  0.0017140708535141  0.0037102598832868 -0.0050913066035358
  0.0024487342573127 -0.0156511587774091 -0.0031057491842267
