26
Lattice="12.12776649 0.0 -0.00117028 0.0 4.05070973 0.0 -2.09132204 0.0 7.3445026" Properties=species:S:1:pos:R:3:momenta:R:3:forces:R:3:energies:R:1 energy=-130.91285705566406 stress="-0.028754452243447304 9.197784493153449e-06 0.01452584844082594 9.197784493153449e-06 0.003459755564108491 -6.085655968490755e-06 0.01452584844082594 -6.085655968490755e-06 0.029638413339853287" free_energy=-130.91285705566406 pbc="T T T"
Al       6.00719063      -0.83677475       2.49497327      -0.65964698       2.16348528      -1.56654479       0.00023730       0.00019327      -0.00017841      -4.13855197
Al       8.54242691      -0.83654265       1.90657361       1.62702254      -1.30019137      -1.06261868      -0.00012472      -0.00014884       0.00005561      -4.13410784
Al       9.71695479       3.21424010       4.47946327      -2.43994736      -0.73274602      -0.38125417       0.00016747      -0.00018331       0.00002076      -4.09176828
Co       8.49545072       1.18876185       5.94031932       4.09925671      -5.21589543      -0.64394875       0.00038967      -0.00002274       0.00025883      -7.56445932
Al       2.74522731      -0.83681423       4.89794010       0.86392946      -0.51947237      -2.12044208      -0.00011045       0.00001955      -0.00011196      -4.11175038
Co      -1.22701823       3.21424327       2.37002153       1.72343233      -0.95482757      -0.11497051       0.00055481      -0.00011878      -0.00009245      -7.47327900
Al       7.64571043       5.23949728       3.69105661       1.50644585       2.07989668       1.43163988      -0.00014122      -0.00016930      -0.00056279      -3.90977718
Ni       0.29177069       1.18887649       1.07919771       7.80406009      -2.96431784       1.83878041      -0.00016550      -0.00010124      -0.00020671      -6.67489147
Co       7.32147993       1.18872718       1.34701286       0.00933199       1.85944498       1.02575091       0.00000421       0.00006791       0.00022784      -7.67680597
Al       4.45113715       3.21392416       7.19353952      -2.06868441      -0.75671342      -0.81448604       0.00003171      -0.00000565      -0.00014314      -4.22301151
Al       1.35157274       1.18851199       5.96092187       0.01333513       1.08039313       1.42918205       0.00008217       0.00017640       0.00017305      -4.01091506
Al       5.01358437       1.18844151       0.85287859      -2.41513488       1.01415308      -1.59810698      -0.00031700       0.00020679      -0.00032643      -4.16904427
Ni       5.14097761      -0.83683064       4.79901423      -2.69159353       1.94670118      -0.57219150      -0.00013389       0.00028632       0.00001568      -6.56394100
Al      10.81350391       1.18885633       6.02609661      -4.71601793       0.13675588       1.72094723      -0.00018928      -0.00017859       0.00003504      -4.00715043
Al       2.59984257       5.23957933       1.68554377      -4.69926548      -1.35045942       2.98792054       0.00025439       0.00003386       0.00007912      -4.02456285
Al       9.87768899       1.18885614       1.08188475       1.36442935       0.01264165      -0.89388172      -0.00003862      -0.00021396       0.00008111      -4.24345876
Al       5.89332283       5.23933595       6.27151768      -1.22020171      -0.75813310       2.81551347       0.00022495       0.00015584      -0.00006294      -4.14639951
Co       1.96828548       3.21375697       7.16817062       1.51213234       0.53543654       0.15089997       0.00000644       0.00020922       0.00031681      -7.23500156
Al      -0.95593240       3.21425160      10.08852810       1.15224175       0.37765391       0.68422455      -0.00011175      -0.00014900      -0.00028282      -4.11379315
Al       1.77093928       3.21417910       0.17020731       3.22325550      -0.65024054      -0.78207366      -0.00014191       0.00012059       0.00003525      -3.91857506
Al      11.58805669       1.18886735       3.45458802      -1.35945667      -1.07993488       0.47353926      -0.00011921      -0.00012102      -0.00012264      -4.11081196
Co       3.57494813      -0.83653527       2.54075826      -1.69860367      -1.22071404      -0.56871803       0.00002067       0.00000050       0.00025352      -7.50809908
Al       7.33273666       3.21408698       5.46635318       2.38830274       2.05491257       1.28270706      -0.00048703      -0.00010687       0.00004845      -3.97023775
Al      11.23001605       3.21422493      -0.00989884      -3.19214474       0.32915402      -5.52778953       0.00000092      -0.00029238       0.00019050      -4.16658379
Al       4.32410121       1.18859356       3.78327919       1.11468013      -0.88114864       0.64564398       0.00023393       0.00018111       0.00008366      -4.08209611
Ni       0.04963740       3.21404185       5.01645076      -1.24115884       4.79416593       0.16027697      -0.00012742       0.00016036       0.00021546      -6.64379549
