Al Co Ni
 1.0000000000000000
   118.9122456600000106   -0.0250678499999983    0.1282913700000000
    -0.0034494800000004   16.1796264600000015   -0.0022224600000000
     0.0251626800000000   -0.0032874400000000   23.3380670700000010
 Al  Co  Ni 
 2280 660 240
Direct
  0.4180156120140953  0.8696544951552478  0.6157452635023299
  0.5876394001467307  0.2501751075381607  0.8917612439655265
  0.5367613799554346  0.2502892360389095  0.6989519347250098
  0.4015454570592121  0.2492275732070655  0.5898660380795749
  0.6613659441285294  0.2499335714688362  0.7088504903150071
  0.6103880232390891  0.2502124129690924  0.1892083252530086
  0.4034001871827297  0.2500689537499620  0.7667516657786627
  0.4893552149234329  0.2498970629705651  0.7788141230829122
  0.5623795600361333  0.2504816491994251  0.0855302943080319
  0.5969566470317484  0.2495138254039020  0.5968731751646695
  0.5089581792834361  0.2498047746960728  0.1806849806793145
  0.4438445532054100  0.2498243816290471  0.5295477602199351
  0.4137387754721692  0.2501545485719271  0.9472250018766296
  0.4324000390263369  0.2503765089363156  0.6519912844376342
  0.5756767116397261  0.2501914235701792  0.9919769334963555
  0.4626287883078307  0.2509778002248407  0.7627662902773107
  0.3500162489424861  0.2501020266470413  0.9507684473554525
  0.4505555497491333  0.2503455840251199  0.9393215583789135
  0.4827939113789210  0.2497842040627547  0.6704488216055213
  0.5882189129534269  0.2425315852005118  0.2798245401513188
  0.3899619483339405  0.2501610797429049  0.0140141025470223
  0.5030724855742318  0.2514102478820808  0.5975815032341042
  0.3861450569957243  0.2499460765297913  0.6792306537179615
  0.5786283360598068  0.2426209573468291  0.4044315047786111
  0.4002249841961865  0.2489597099142366  0.2083400270269745
  0.3805299911545894  0.2503869679328245  0.2823157676874372
  0.4323920915320938  0.2503976667458751  0.8139475113972249
  0.3593186824285531  0.2499562998876609  0.2080566058751275
  0.5975125804046270  0.2501877598705930  0.4815552827401037
  0.6241884832806202  0.2497835750865114  0.2806101320271956
  0.4315306626009448  0.2498387076234524  0.0882240302896053
  0.5254218585096873  0.2490843088393767  0.5078176980835163
  0.6274843864927213  0.2501168746259031  0.9790866887800397
  0.5805474773952348  0.2500737928477195  0.7808443613686565
  0.4076706123554504  0.2501119613486650  0.0817219054536705
  0.5545562338476946  0.2510351169788423  0.3987502341857539
  0.4216537166736585  0.2496529106601843  0.5243446606829408
  0.5232650988892749  0.2496834728558196  0.2672319112902982
  0.6502115713221214  0.2504917561400163  0.8958504781029721
  0.3692204562628785  0.2509667952394204  0.0909456383497630
  0.3706219894226702  0.2493376370776020  0.4808276190419992
  0.4438370432257422  0.2497701727091131  0.2700896268926776
  0.5553842245342433  0.3835847714359740  0.4989023227717892
  0.5552654562261283  0.1148082049957258  0.5015666579903482
  0.4844399134878387  0.1012158575617340  0.6261294571741353
  0.4847588694090986  0.3986206511395956  0.6264051219502432
  0.5579964065905569  0.3817245601821731  0.8251134132595258
  0.5580071223101521  0.1185189818872470  0.8251283756169105
  0.4656118299737363  0.1247097789981296  0.4228598375263947
  0.4666299181486980  0.3750642210903981  0.4245715586135799
  0.5279599862342561  0.3919775532708386  0.3145597770717959
  0.5280416867263600  0.1080187434820006  0.3149016677132350
  0.5670424892257070  0.3675976554364227  0.6887676341321760
  0.5670350322239516  0.1323484460396945  0.6888372818051781
  0.4317993562542152  0.1344739771231453  0.1992702767913870
  0.4317022670163716  0.3658635297237418  0.1973929459609016
  0.5159555711484500  0.3751455038221519  0.8577189663578872
  0.5159955158366307  0.1248357129104240  0.8571928955380027
  0.4948768817119908  0.3736203104052830  0.5272328359376106
  0.4532063932714471  0.3791627670927709  0.1279587652304122
  0.5154877612587573  0.2502117354148203  0.7783608082777924
  0.4531765135482463  0.1213755521564380  0.1275266632961431
  0.5013193092294352  0.1245535137589479  0.4205913239002632
  0.3409882848823541  0.2496557556464219  0.2695237658676177
  0.6177872909615363  0.2465570333837551  0.4009330931110002
  0.4134892395116967  0.1403233548202979  0.8454687902957840
  0.4134922271287244  0.3599730227255351  0.8455054880383667
  0.4209632774410179  0.1407317863441248  0.7305649599256953
  0.4209886753489656  0.3595884346479075  0.7304209070932467
  0.4197487769925780  0.1238792116567308  0.3471982710937866
  0.4321628395688650  0.1410751243655836  0.9161320056251744
  0.4321950218628156  0.3593251076345331  0.9160414729316135
  0.4444459707744854  0.3593919611635474  0.7314337717885917
  0.4443585924065057  0.1419282307792575  0.7321934671371565
  0.4513753355991061  0.1407177814639727  0.8453496004911253
  0.4514155748542945  0.3600281723286399  0.8452166554837034
  0.5660760705033078  0.3790656807893338  0.3115953964834066
  0.5670883723080383  0.1229077548189329  0.3134155375769657
  0.5359519149849684  0.3467738065248721  0.8100366978279174
  0.5360018984193388  0.1540782267105105  0.8099655341754158
  0.5011386130694118  0.3757166017152441  0.4197733180807224
  0.4953558390758211  0.1263790547939106  0.5289601147128060
  0.6389224299553418  0.2492808632085975  0.7382501570526516
  0.5680748571201012  0.2513234326468323  0.2090979856629024
  0.3611478779269073  0.1482642509282877  0.7077089872118074
  0.3610205280609680  0.8529339521675985  0.7080828182186640
  0.3374145213315621  0.8995934770884813  0.3079384687432019
  0.3375084479421078  0.0988284426251990  0.3076608259863198
  0.2844388094637733  0.8487337368980422  0.5077835176328613
  0.2840406766760606  0.1486821842633141  0.5032514549308178
  0.3494488093438000  0.1383399440519393  0.1270724954187824
  0.3293749631362074  0.1476418662969110  0.8082562146134971
  0.3495587415782984  0.8616381705807792  0.1271878972253703
  0.3310980676361540  0.1237929068368242  0.9214026316065449
  0.2980780251939529  0.8780698313682511  0.6826018330315321
  0.2981672351203954  0.1213093897158299  0.6804042892333959
  0.4129644898344895  0.1094898707603650  0.1292728587229851
  0.4130411094171247  0.8928788175823231  0.1269830873639312
  0.3065493521321486  0.8754646974067927  0.5280303196271733
  0.3059540969876494  0.1233746178997040  0.5321885055697416
  0.3313064175329771  0.8762750248528716  0.9218507008549984
  0.3293005100520787  0.8522606668884855  0.8086665246253028
  0.3112788922094589  0.1034064141149667  0.1125864104287632
  0.3113959753425564  0.8978937354654531  0.1114611085097598
  0.2545955717437820  0.1209939018378858  0.0174919635646003
  0.3817960090558662  0.0982399967897862  0.0104917796764627
  0.3817429720771653  0.9014255817454689  0.0108954640310205
  0.3883123639717672  0.1427763783273695  0.1238411170099613
  0.3885297059522761  0.8581116920418738  0.1250964277731888
  0.3987181109517864  0.1224025934997234  0.9324997829925342
  0.3987083668595151  0.8779153321363007  0.9326634580859640
  0.4120685170797306  0.1079028016328182  0.5010667578462465
  0.4117865486557140  0.8907041911279243  0.5025956321264098
  0.2672673856166623  0.8944225311465548  0.4342997610843702
  0.2654865598617887  0.1081361000197682  0.4294158799625727
  0.2772979570757799  0.8675600142466239  0.0113135864986328
  0.2773004385573837  0.1329090799454592  0.0114147271181750
  0.3002857492322171  0.8816457853637120  0.9277003533147091
  0.3003595558194839  0.1185939613214494  0.9278717055663315
  0.2961178649589095  0.0978661377390594  0.3137036933137394
  0.2968676598253259  0.9036908437133113  0.3113347312315254
  0.3287412000877163  0.8676015038650795  0.1945340130557737
  0.3287258453054374  0.1319693001088905  0.1951367812949939
  0.3598562774768271  0.8753490268365607  0.0276181977412535
  0.3600073871166789  0.1250765582896729  0.0283123528535203
  0.5347583049336475  0.2495758652903263  0.0946733965386240
  0.3491399254713130  0.2496335066254778  0.3935681003227045
  0.5571207651878224  0.2500990960338874  0.7651698245456231
  0.5972293806770163  0.2511221877717655  0.0876834727999899
  0.6630938626446012  0.2496159261758830  0.0938409937507528
  0.4840099128153468  0.2487699355803173  0.2784499489689994
  0.4639128041427886  0.2462216947293019  0.5928528155548921
  0.4542934018150660  0.2502788540357540  0.0611211745613664
  0.3752275045094993  0.2502655207798086  0.7800600965634255
  0.3373418851579093  0.2488748974946158  0.5895325953310424
  0.6104340291548159  0.2502831712260439  0.8961582508727477
  0.6177048407186713  0.2503968950220087  0.7848549341441786
  0.5478808766185534  0.2498200287549383  0.2776102484309357
  0.4834415985739615  0.2493267484869891  0.8961648597178595
  0.4952173785213304  0.2514771755513328  0.0898488454650312
  0.4512161163433423  0.2538095642820186  0.4009604599095887
  0.5468390349525134  0.2500225122031921  0.5437991117618275
  0.5483174999518050  0.2501857100566540  0.9000145060913187
  0.5691075152760701  0.2504206459828698  0.5863067180515142
  0.3630967077428909  0.2493575650601443  0.5959531239354575
  0.6307303040555690  0.2515483109373495  0.5931254009486752
  0.3163655316722713  0.8452046856323049  0.0054158832911844
  0.3164155409596908  0.1548682788339109  0.0061484145229860
  0.2514419441003301  0.8800710720394798  0.6160273733539491
  0.2513489499923984  0.1196545089468518  0.6157452292754462
  0.5148979763898301  0.2501452896119170  0.9532942572006770
  0.6503391716302204  0.2503822339517006  0.4469696561687745
  0.4838610767468886  0.2495922357397805  0.4564217199607621
  0.4633496531058561  0.2502531464670871  0.1973551414163974
  0.6363968162590524  0.2504896403944369  0.0941148216834906
  0.3816979253547245  0.2500405802200263  0.8995867556343855
  0.5995730220976760  0.2503450198671197  0.7141090033655452
  0.3889787877058275  0.2486987975965990  0.3968337238589184
  0.6507963287164715  0.2525370819977054  0.2762807827377459
  0.4747168118424954  0.2502736698114517  0.0115200769840177
  0.4131368928152060  0.2571230681193631  0.4029698978988822
  0.4199691867209909  0.2567771740529893  0.2786324530771665
  0.3488745995780904  0.2497974753535678  0.7783342632330228
  0.5159265256686696  0.2499503429368679  0.3943913640914244
  0.2545457654328236  0.8794969896543731  0.0177020024604470
  0.5167778024072861  0.4017298229305199  0.5007913812969025
  0.5339580729492703  0.3762766087919809  0.9226312841349785
  0.7357741758066291  0.5004206371454478  0.5863067761000124
  0.8055891018492999  0.4992807618352511  0.7382501630705648
  0.6821544202838185  0.5002117465741919  0.7783608302236329
  0.6697391423959351  0.5014102459044069  0.5975814221026592
  0.5528117573827158  0.4999460543406346  0.6792306385580789
  0.7452949859972959  0.4926209026205468  0.4044313910332065
  0.5668916666299593  0.4989596336159161  0.2083400670597342
  0.7347415174739013  0.5013233542861025  0.2090979549613914
  0.5471966759195203  0.5003869439453010  0.2823157996085361
  0.5259853594788065  0.4999562109174453  0.2080566938386354
  0.7641792444546043  0.5001877528267648  0.4815552604227576
  0.7908551412110331  0.4997835126967900  0.2806101470906253
  0.5981973493582284  0.4998385755241250  0.0882240830690702
  0.6920885260281890  0.4990841672718147  0.5078176957292833
  0.7941510582950549  0.5001168740947429  0.9790868063211474
  0.7472141477280559  0.5000739031407011  0.7808443436953935
  0.5990587477684480  0.5003976312049088  0.8139475192096841
  0.7135056977013802  0.5000223919043162  0.5437991201221638
  0.6178827815297802  0.5038095847103845  0.4009604870835590
  0.6618840511905786  0.5014771997336497  0.0898488182178977
  0.6825931869543820  0.4999503765926705  0.3943914260952298
  0.5297633833091271  0.4993576127791905  0.5959531188480164
  0.7149841532013793  0.5001857293257906  0.9000145523231959
  0.7014249694930282  0.4995758340186805  0.0946734451600930
  0.5158065965770884  0.4996335500073328  0.3935681036910322
  0.7237874464966528  0.5000990334644186  0.7651698635009230
  0.7638960382970124  0.5011221661309999  0.0876834012798034
  0.8297605257908061  0.4996159215555898  0.0938409927761141
  0.6506765676925974  0.4987699417431485  0.2784500256309696
  0.6305794783131266  0.4962216768188888  0.5928528791798059
  0.6209600682824202  0.5002787611140738  0.0611211518913342
  0.5418941808904381  0.5002654888002389  0.7800601001645761
  0.5040085560515540  0.4988749709351354  0.5895325960229479
  0.7771007070929977  0.5002830221779495  0.8961582268877543
  0.7843714751779474  0.5003969975355752  0.7848549237909342
  0.7145475357363534  0.4998200882245210  0.2776102514877433
  0.6501082723144523  0.4993267640584804  0.8961648781170681
  0.5743372954683931  0.5001120695970056  0.0817219087075636
  0.7212229312940670  0.5010350149883505  0.3987503234163569
  0.5883203694505298  0.4996527758285549  0.5243446420622531
  0.6899317751650920  0.4996834887969682  0.2672319239593321
  0.5358871341094363  0.5009667311729783  0.0909456356489857
  0.5372886543768299  0.4993375874560974  0.4808276557605335
  0.6105037192721582  0.4997702323917062  0.2700897210419378
  0.5076549419096792  0.4996557481363417  0.2695237003324942
  0.7844539470254900  0.4965571217993800  0.4009330622067477
  0.5801558857787926  0.3903233929985353  0.8454687785559165
  0.5801588722167907  0.6099730773210174  0.8455055285593781
  0.5876299448005031  0.3907318216797441  0.7305649797968455
  0.5876553328516004  0.6095883215731602  0.7304208823192049
  0.5864154339675832  0.3738792085208235  0.3471982760918680
  0.5988295061476162  0.3910750191979701  0.9161320063911117
  0.5988616983832256  0.6093249877708427  0.9160415240033314
  0.6111126281559980  0.6093920765210085  0.7314337912279874
  0.6110252291045538  0.3919281678515148  0.7321935869224535
  0.6180420084215377  0.3907178589583526  0.8453496456495251
  0.6180822252583560  0.6100281179664568  0.8452166524507033
  0.7327427299656941  0.6290655979170483  0.3115954074427570
  0.8168782984437843  0.5004918473498192  0.8958505575440069
  0.7973969680024915  0.5015483658014362  0.5931253238372133
  0.5166829141870006  0.5001019924093966  0.9507684336089411
  0.7423433572501471  0.5001914586007323  0.9919769994254707
  0.5566286233322238  0.5001608904474473  0.0140141143663215
  0.7548855859387944  0.4925316218495735  0.2798244666795612
  0.6494605833109405  0.4997842972702707  0.6704487653600946
  0.7290462145271596  0.5004815507123782  0.0855302987735808
  0.7543060881560406  0.5001750657298453  0.8917612830567070
  0.7034280324197529  0.5002891433533072  0.6989519805026234
  0.5682120963031383  0.4992274973939094  0.5898660285770798
  0.8280326390820306  0.4999334856608899  0.7088504514743973
  0.7770547057408772  0.5002124155050418  0.1892083887255793
  0.5700668477272324  0.5000689842683610  0.7667516956426402
  0.6560218852203363  0.4998969460666635  0.7788141650019542
  0.7636232828188230  0.4995138177528646  0.5968731601112210
  0.6172222306022301  0.5003455739933499  0.9393215462722977
  0.6756248273473403  0.4998047428138840  0.1806849657349348
  0.6105112261126162  0.4998244374096261  0.5295478006630477
  0.5804054501393049  0.5001545821603057  0.9472249527957700
  0.5990667185405056  0.5003765052213457  0.6519913580117529
  0.6292954635817163  0.5009778588239799  0.7627663062584161
  0.5169901795822185  0.0954373441540770  0.5002634404484573
  0.5155412652412076  0.4997974538516816  0.7783342490760840
  0.5798035591069214  0.5071229557543812  0.4029698120963180
  0.4835538988593939  0.1237473389016609  0.3563846897846087
  0.4835724273670772  0.3768886620070649  0.3525615046536479
  0.4212124225927487  0.1294969714749365  0.0177020550439128
  0.4212622298026908  0.3709938805353941  0.0174919439501098
  0.5484627258124743  0.3482402611929440  0.0104918180034043
  0.5484096335669693  0.1514255418426894  0.0108954088602821
  0.5549790362611041  0.3927764093614577  0.1238411794129004
  0.4392709115301556  0.3896617027601213  0.3197474402162073
  0.5551963702429236  0.1081116671330252  0.1250964816804886
  0.5653750190020451  0.1279153127596131  0.9326635216318565
  0.5787351594782401  0.3579028494015552  0.5010667432501992
  0.5784532222128453  0.1407041632190550  0.5025956471972389
  0.4339340468388704  0.1444224486144737  0.4342997876210924
  0.4321532279967630  0.3581361079423039  0.4294158740133222
  0.4439646317840711  0.1175599862473371  0.0113135922362196
  0.4439670984095541  0.3829090739555619  0.0114146578635463
  0.5653847529841313  0.3724025762446426  0.9324998475611637
  0.4411259007497736  0.1091774609082344  0.3218961202251159
  0.5460572092520531  0.1290047537690634  0.6220134072329611
  0.5461828415440698  0.3706418022225483  0.6218453111444280
  0.5339881567286490  0.1239375771170135  0.9223909531241427
  0.4458674822109315  0.1196574154986116  0.6193963126775317
  0.4460292894042385  0.3798843027549019  0.6175137728783290
  0.4716382816261363  0.1009534190174632  0.2103052207403084
  0.4717503315862238  0.3981385387621620  0.2129346046282094
  0.5045534358811963  0.1259392155737689  0.0290225336303681
  0.5047257204627948  0.3746106855800897  0.0278588878987140
  0.5360595869865226  0.3587944964675587  0.1941062345734982
  0.5362102285991547  0.1407470757573250  0.1947506713483421
  0.4732006309778263  0.1213670829440453  0.8182208851420026
  0.4733293838423835  0.3787401323638929  0.8188354464428587
  0.5043716335937775  0.1402121933966673  0.6958840323602711
  0.5045247924838046  0.3601186278266818  0.6959357606395277
  0.5216339427927563  0.3481548145587348  0.6076205931881771
  0.5211808999335149  0.1489547461890782  0.6074896908889393
  0.5350835425700913  0.3594361489093326  0.4264960125175926
  0.5355152808935163  0.1397330232942131  0.4263966476470385
  0.4669524179769832  0.1316458448307488  0.9277003205617659
  0.4670262228441986  0.3685939638093348  0.9278716381522728
  0.4627845168193394  0.3478661750223098  0.3137036539572423
  0.4635343173142553  0.1536907148163941  0.3113347159785583
  0.4953925054446942  0.3819693145531058  0.1951367255579918
  0.5265229202693320  0.1253489574025036  0.0276182228350099
  0.5266740338527949  0.3750767127705966  0.0283124134662985
  0.4830322002698468  0.0952047544252944  0.0054159374295659
  0.4830822120147473  0.4048683765031691  0.0061484291182403
  0.4181086259157955  0.1300710489211378  0.6160274266543583
  0.4180156299326752  0.3696544882890969  0.6157452130573327
  0.6815646408721795  0.5001453377130316  0.9532942322533231
  0.8170057975502799  0.5003822311377947  0.4469696242363660
  0.6505277308629536  0.4995921951659156  0.4564217256287389
  0.6300163318478530  0.5002531715448800  0.1973551548296999
  0.8030635020759979  0.5004897341180996  0.0941148501496338
  0.5483645537516380  0.5000406113058254  0.8995868468183327
  0.7662396446053972  0.5003450451433258  0.7141089996912089
  0.5556454468754697  0.4986988126986117  0.3968337884404405
  0.8174629786075281  0.5025370857461340  0.2762806385580907
  0.6413834751029912  0.5002737479484879  0.0115200878421784
  0.4954078749097743  0.1176015887147629  0.1945340033789028
  0.5866358410029001  0.5067772153547567  0.2786324475919145
  0.4726207944500600  0.3733746552338410  0.5321885011830553
  0.5797077664521141  0.1428787620353954  0.1269830524115190
  0.4780626525240789  0.1478937633522444  0.1114610741124168
  0.4779455609006465  0.3534063363721754  0.1125863549580149
  0.4959671799431561  0.1022606501877760  0.8086665924586942
  0.4960416375232063  0.3976418976220243  0.8082562593607662
  0.5278145483272683  0.3982642620038802  0.7077089781583173
  0.5276871767931444  0.1029339085510838  0.7080827981491190
  0.5040811885036316  0.1495935147574620  0.3079384821151654
  0.5041751032293931  0.3488284691399159  0.3076608232013060
  0.4511054644352845  0.0987336882110656  0.5077835075332536
  0.4507073611914787  0.3986821680320441  0.5032514193953664
  0.5161154823396780  0.3883400164145263  0.1270724649690911
  0.5162254223318832  0.1116381232030297  0.1271879521704368
  0.4979730727347271  0.1262750042593859  0.9218507056441729
  0.4977647436484070  0.3737929486044696  0.9214026574312939
  0.4647447009989505  0.1280698675346350  0.6826017979233936
  0.4648339027262385  0.3713093977741585  0.6804042394410234
  0.5796311518551288  0.3594899017199102  0.1292728112138622
  0.4732160214190355  0.1254647557859455  0.5280302834413564
  0.3169057640939568  0.1268886401832229  0.3525614974010173
  0.3168872414200935  0.8737473375654692  0.3563846688300059
  0.2726042212420088  0.1396616696964788  0.3197474994053853
  0.4656118288900055  0.6247098474460409  0.4228597920835057
  0.4666299149942665  0.8750642856019361  0.4245716540838824
  0.5279600001289400  0.8919775972602415  0.3145598704668081
  0.5280416768303637  0.6080188669032179  0.3149016408818855
  0.5670425126337756  0.8675977606758277  0.6887676198345104
  0.5670350692059782  0.6323483722894560  0.6888372247490608
  0.4317993455648790  0.6344739833178367  0.1992702714894179
  0.5580071225517694  0.6185190353303253  0.8251283281087691
  0.4317022610114146  0.8658635256427986  0.1973929704356274
  0.5159955131856655  0.6248357145966013  0.8571928412589586
  0.4948768909838705  0.8736203111931208  0.5272328555519359
  0.4953558429070198  0.6263789873907997  0.5289600790433499
  0.5167777737727197  0.9017299103214428  0.5007913459730093
  0.5169901620987037  0.5954372771716901  0.5002634005637455
  0.5339580969935744  0.8762766238632316  0.9226313845344789
  0.5339881665428555  0.6239376035994817  0.9223909489133885
  0.5159555668443689  0.8751455255701678  0.8577189419591530
  0.5579963914300390  0.8817245663919484  0.8251134257125985
  0.4847588726196573  0.8986206844782922  0.6264051918093968
  0.4844399173637198  0.6012159525024073  0.6261294048766881
  0.4197487913315232  0.6238792114788596  0.3471982888805810
  0.4321628399490515  0.6410751288396296  0.9161320044925804
  0.4321950227618916  0.8593250065177122  0.9160414512656226
  0.4444459662545210  0.8593918896893629  0.7314336896797008
  0.4443585874266478  0.6419282889326569  0.7321935274012261
  0.4513753487763048  0.6407178363560661  0.8453496207036394
  0.4514155874932077  0.8600281731068457  0.8452166689969235
  0.5660761119927620  0.8790655629622767  0.3115953221089065
  0.5670883859269348  0.6229078157013509  0.3134155102857028
  0.5359519258329750  0.8467737903324596  0.8100366419411325
  0.5360018801353115  0.6540782527973025  0.8099655733507304
  0.5013193135244209  0.6245534418877565  0.4205914678431421
  0.5011386160592376  0.8757166128274634  0.4197733404499748
  0.4531765169682419  0.6213754973206607  0.1275266691886831
  0.4532063964825144  0.8791627289102213  0.1279587563685954
  0.5553842081083532  0.8835848450401954  0.4989023877646845
  0.5552654603767040  0.6148081396571338  0.5015666840869195
  0.4458674761858889  0.6196574083296338  0.6193963422881029
  0.4460292821897699  0.8798843361367960  0.6175137247597198
  0.4716382962051326  0.6009534655570896  0.2103052145289205
  0.4717503642096315  0.8981386051727348  0.2129345654302268
  0.5484096318351170  0.6514256852010428  0.0108955119381460
  0.5549790241744889  0.8927763502281442  0.1238411864529058
  0.5551963734359581  0.6081117457913795  0.1250964554259773
  0.5653847850185859  0.8724026084361937  0.9324998182452460
  0.5653750313072030  0.6279153523534662  0.9326634987249384
  0.5787351739567160  0.8579028338198381  0.5010667095068647
  0.5784532153913127  0.6407041480890009  0.5025956148555594
  0.4339340531891093  0.6444224932695565  0.4342997915647432
  0.4321532327991693  0.8581361245958982  0.4294158440470163
  0.4439646357872348  0.6175600192889467  0.0113136077406835
  0.4439670816886295  0.8829090847100094  0.0114146619323609
  0.4669524176643413  0.6316457605465365  0.9277003239332847
  0.4670262309402290  0.8685940008050888  0.9278717485024375
  0.4627845197334012  0.8478661201496596  0.3137037115287604
  0.4635343066658798  0.6536907539242539  0.3113347176774645
  0.4780626662980312  0.6478937222032060  0.1114610869321896
  0.4779455690464748  0.8534064194172790  0.1125864254854197
  0.5484626827547114  0.8482400243904852  0.0104918187911874
  0.4209886834711230  0.8595884437487492  0.7304209333278516
  0.4212622510564123  0.8709939102294740  0.0174919152332753
  0.4835724388486478  0.8768886781772636  0.3525614520512300
  0.5045534546076317  0.6259392258760339  0.0290226518999853
  0.5047257270257129  0.8746105623101547  0.0278589454838833
  0.5360595771542661  0.8587945601833348  0.1941062602057690
  0.5362102266184846  0.6407470844651382  0.1947507004378260
  0.4732006436836115  0.6213670695746170  0.8182209036910860
  0.4733293882223643  0.8787400648360886  0.8188354654044855
  0.5043716250538823  0.6402121075902725  0.6958840084266423
  0.5045247968679316  0.8601187333576282  0.6959357080036938
  0.5216339410346037  0.8481547064719180  0.6076205954623133
  0.5211809061769290  0.6489547811714770  0.6074897250444249
  0.5350835587215570  0.8594361293676062  0.4264959260350938
  0.5355152723622030  0.6397331666946654  0.4263965827691242
  0.5461828379704805  0.8706418800590031  0.6218453303886360
  0.5460572191618569  0.6290048058921069  0.6220132863798826
  0.4411259101005361  0.6091773548333058  0.3218961025499590
  0.4392708923380962  0.8896616700702265  0.3197475111650985
  0.4835538942903397  0.6237473134190232  0.3563846586351675
  0.4212124229996363  0.6294969836163585  0.0177020005648880
  0.4959671564414250  0.6022606994072938  0.8086664902942771
  0.4209632932985000  0.6407317721198760  0.7305650182540611
  0.4134892197090761  0.6403233228620132  0.8454687658752224
  0.4639127932107507  0.7462216435160707  0.5928528610837878
  0.4542934006800788  0.7502788933948176  0.0611211460396288
  0.3752275031480370  0.7502655603545398  0.7800600570709983
  0.3373418881508194  0.7488749459462056  0.5895325574104088
  0.6104340544978381  0.7502830787936280  0.8961581103402537
  0.6177048275669599  0.7503969261321490  0.7848549898251667
  0.5478808861892864  0.7498200713499418  0.2776102375189708
  0.4840099068125736  0.7487699549725002  0.2784500053498524
  0.4834416254706719  0.7493267236523049  0.8961649114567650
  0.4512161230724688  0.7538095356263483  0.4009604752197855
  0.5468390365014891  0.7500224677615536  0.5437990521026677
  0.5680748307058914  0.7513233786639757  0.2090980104224110
  0.5691075218841620  0.7504205714023759  0.5863066834716750
  0.6389224110680708  0.7492808288129473  0.7382502244163243
  0.5154877595120054  0.7502117684346087  0.7783608243494160
  0.5030724685767637  0.7514102848721573  0.5975814799098287
  0.4952173769631924  0.7514772122304829  0.0898488366989383
  0.6630938531883120  0.7496159127226425  0.0938410205063385
  0.5972293814190289  0.7511221165109716  0.0876834062808782
  0.5571207593533339  0.7500990965376242  0.7651698008435869
  0.4838610705596215  0.7495922456064236  0.4564217235576485
  0.4633496561095324  0.7502531127898796  0.1973551389897661
  0.6363968236575266  0.7504896041173251  0.0941148161904706
  0.3816979158240065  0.7500406560499975  0.8995867849934370
  0.5995730175490624  0.7503449666869415  0.7141089985290288
  0.3889787873077703  0.7486988481706617  0.3968337319484523
  0.6507963281082342  0.7525371324972371  0.2762806436728067
  0.4747167978298459  0.7502737735352450  0.0115200914650825
  0.4131369049261580  0.7571230808599021  0.4029698598703070
  0.4199691833394270  0.7567771576500294  0.2786324486902825
  0.3488745979474763  0.7497974739092140  0.7783342413528721
  0.6307303070245365  0.7515483082500536  0.5931253648226191
  0.5159265497082700  0.7499504089815878  0.3943913381505434
  0.3630967092072161  0.7493575376062721  0.5959530942808676
  0.5483175036826226  0.7501856904920111  0.9000144937923148
  0.5347582979715648  0.7495758713218066  0.0946734197011562
  0.3491399338131578  0.7496334977514094  0.3935681170725504
  0.3861450798947391  0.7499460610102022  0.6792306726817390
  0.5786283432506371  0.7426208720561642  0.4044314295499645
  0.4002249826667668  0.7489596737986500  0.2083400228100021
  0.3805300067480200  0.7503869822565153  0.2823157887699542
  0.4034001767972218  0.7500688920333428  0.7667517412528745
  0.4893552293008796  0.7498969817930737  0.7788141005181455
  0.5969566340303666  0.7495137598340218  0.5968731695565319
  0.4505555696679220  0.7503455227743543  0.9393215965706836
  0.5089581830756948  0.7498047434055760  0.1806849573917085
  0.4438445576977891  0.7498244239038893  0.5295478053837518
  0.4137387800042785  0.7501545127469916  0.9472249909673657
  0.4324000477866566  0.7503765274290610  0.6519912855724393
  0.5756766968752411  0.7501914376109912  0.9919769329152878
  0.4626288037319507  0.7509777957673666  0.7627662929882699
  0.3500162602617050  0.7501020351079729  0.9507684087206024
  0.6502116154297425  0.7504917605499032  0.8958505757815834
  0.3692204716083985  0.7509667217885050  0.0909456840592190
  0.3706219819513970  0.7493376959410357  0.4808276113122044
  0.4438370451069667  0.7497702818551449  0.2700896793408534
  0.3409882786393258  0.7496557429573526  0.2695238333582075
  0.6177872774514552  0.7465570351598899  0.4009330891631708
  0.6103880279761824  0.7502124601820210  0.1892083002325035
  0.4134922352688143  0.8599730314166989  0.8455054728177961
  0.6613659871302926  0.7499335878928390  0.7088504902078501
  0.5367613693439871  0.7502891949962488  0.6989519752301427
  0.4323920885963512  0.7503977058865965  0.8139475031023451
  0.3593186926777407  0.7499563143177924  0.2080565484475491
  0.5975125826431285  0.7501877865817665  0.4815553054698604
  0.6241884910110057  0.7497835826926647  0.2806101231317263
  0.4315306844080213  0.7498386442822781  0.0882240678142342
  0.5254218804628121  0.7490842228509347  0.5078176541198368
  0.6274843962249544  0.7501169301926213  0.9790867145149296
  0.5805474996119604  0.7500737602886328  0.7808443553860812
  0.4076706249308478  0.7501120667923087  0.0817219296540136
  0.5545562307083063  0.7510350417979497  0.3987502512629199
  0.4216537106959924  0.7496528758647232  0.5243446573557985
  0.5232650901073842  0.7496834787669422  0.2672319710163416
  0.3899619378863448  0.7501610136543202  0.0140140617705477
  0.5882189264497200  0.7425315730656652  0.2798245204255851
  0.4827939179039137  0.7497842041415124  0.6704488325435864
  0.5623795363023544  0.7504815980215076  0.0855303797671808
  0.5876394294629357  0.7501751263490138  0.8917611748914086
  0.4015454630283327  0.7492275405942871  0.5898660793510314
  0.4960416436565028  0.8976418991444416  0.8082562685992366
  0.5278145449086441  0.8982642256071256  0.7077089143222941
  0.5276871753327680  0.6029339202838890  0.7080827605734046
  0.2542966112181496  0.8907317124510853  0.7305650240750394
  0.2543220069722706  0.1095884343171931  0.7304208735977132
  0.2530821285364129  0.8738792367449415  0.3471983214474457
  0.2654961775174470  0.8910750783237306  0.9161320643598470
  0.2655283438891139  0.1093250372513062  0.9160414830804199
  0.2777793015652366  0.1093919635544185  0.7314337630563242
  0.2776919222707462  0.8919281780042054  0.7321934678918030
  0.2468255565989392  0.1099730803585986  0.8455055223786455
  0.2847086663740028  0.8907177245373793  0.8453496308026417
  0.3994094201014342  0.1290655987426992  0.3115953927475001
  0.4004216989936062  0.8729076866501003  0.3134155279998096
  0.3692852603118456  0.0967738448939235  0.8100366923154394
  0.3693352210971056  0.9040781511548515  0.8099655418243124
  0.3346526334095971  0.8745534551126555  0.4205913459671433
  0.3344719453462252  0.1257166196287258  0.4197734029021045
  0.2865098476641863  0.8713754833920873  0.1275266128183059
  0.2847489230429573  0.1100281578114142  0.8452166728671792
  0.2468225632166294  0.8903233228327114  0.8454687652043532
  0.4511206207842848  0.9965570755788731  0.4009330524439163
  0.1743216062341024 -0.0003442815493514  0.2695237351528286
  0.4946992924141831  0.9999335706194690  0.7088504740748649
  0.4437213654515824  0.0002124539293582  0.1892083275537359
  0.2367335089370986  0.0000689273314197  0.7667516776096310
  0.3226885603119473  0.9998971111841167  0.7788140696774630
  0.4302899652073752 -0.0004861984635323  0.5968731505255720
  0.2838889073822715  1.0003455745201395  0.9393215306373206
  0.3422914828840030 -0.0001951810679376  0.1806851122216893
  0.2771778890582349 -0.0001754924311349  0.5295477820306470
  0.2470721148834716  1.0001546166387547  0.9472249743502368
  0.2657333798120367  0.0003765080444294  0.6519912656809335
  0.4090100329227294  0.0001914770917788  0.9919769695378228
  0.2959621258060846  0.0009778305686391  0.7627662518135414
  0.1833495903798797  1.0001019788333878  0.9507684533037958
  0.4835449321268640  0.0004917913234255  0.8958505130577327
  0.2025537992182414  0.0009668758761985  0.0909456570921103
  0.2039553130542340  0.9993376397375118  0.4808276396642879
  0.2771703642780495  0.9997701489488756  0.2700896831354094
  0.2865397295913361  0.1291627074653225  0.1279587624203694
  0.3887175438068745  0.1335847336627851  0.4989023465143836
  0.3885987717441924  0.8648082037569333  0.5015666942567868
  0.3177732516609627  0.8512159661526697  0.6261294327633019
  0.3049716225750096  0.8509533284245849  0.2103052064054485
  0.3050836567603593  0.1481385625261986  0.2129345622097644
  0.3378867699164930  0.8759392158129257  0.0290225665655770
  0.3380590654560020  0.1246106728008160  0.0278589608588861
  0.3693929161013251  0.1087946017988303  0.1941062750719807
  0.3695435499124884  0.8907469821878007  0.1947507222149007
  0.3065339742520180  0.8713671158706304  0.8182209049986026
  0.3066627106342418  0.1287400651292603  0.8188355053300188
  0.3377049590681497  0.8902121164255895  0.6958839965272852
  0.3378581154634330  0.1101187280230603  0.6959356992792580
  0.3549672674016091  0.0981548663501590  0.6076205681406969
  0.3545142439309250  0.8989547424532726  0.6074896854773125
  0.3684168749286377  0.1094361085650225  0.4264959686054444
  0.3688486025641393  0.8897330671234606  0.4263965949667225
  0.3795161792919204  0.1206417730510445  0.6218452920524117
  0.3793905381253503  0.8790047326346225  0.6220133112545398
  0.2744592207450106  0.8591774080079362  0.3218961153268164
  0.2793626187711054  0.1298843206942800  0.6175137082550437
  0.2348787785037540  0.9992274922661475  0.5898660302438633
  0.2792008156319625  0.8696573903662996  0.6193963142984491
  0.3672914273487676  0.1262765609131317  0.9226314106172335
  0.3180922049437234  0.1486207393720719  0.6264052169899115
  0.3913297509900805  0.1317244814545517  0.8251133967489103
  0.3913404592443532  0.8685190159566778  0.8251282669705076
  0.2989451598355040  0.8747097923451735  0.4228598411343614
  0.2999632462479762  0.1250642493350385  0.4245715797260233
  0.3612933156916731  0.1419775446713859  0.3145597819883452
  0.3613750037156311  0.8580187639411888  0.3149016543424741
  0.4003758532743533  0.1175977206571502  0.6887676297330443
  0.4003683782204279  0.8823484096105810  0.6888372337980959
  0.2651326900871176  0.8844739942608641  0.1992702992151259
  0.2650356093507412  0.1158634869764505  0.1973929718576209
  0.3492889091773938  0.1251454837416256  0.8577189255073709
  0.3493288398760584  0.8748357409769760  0.8571928509118234
  0.3282102241661414  0.1236203481730936  0.5272328273899846
  0.3286891751331025  0.8763790004694940  0.5289601139181218
  0.3501111038626011  0.1517298885879636  0.5007913532948637
  0.3503234995609363  0.8454373931838732  0.5002634269605027
  0.3673214837981312  0.8739376524029160  0.9223909589410803
  0.3700946891808691  1.0002891043758066  0.6989519897538463
  0.4209727333440614  1.0001751297104502  0.8917612266269317
  0.3957128756781351  0.0004815974318354  0.0855303015001157
  0.7514419524065369  0.1300709853879810  0.6160273574958609
  0.3482312969999408  0.0001453011575866  0.9532941805905087
  0.4836724750108377  0.0003822228478841  0.4469696784833703
  0.3171943892393357  0.9995922087846507  0.4564217193740924
  0.2966829972346529  0.0002531136461619  0.1973551356715184
  0.4697301654581456  1.0004896637215819  0.0941148150335444
  0.2150312514341729  0.0000406158686195  0.8995868321775123
  0.4329063067521629  0.0003449678374842  0.7141090063509278
  0.2223121183074751  0.9986987955254303  0.3968337300302830
  0.4841296352368865  0.0025371151806310  0.2762807162116315
  0.3080501435712493  0.0002736913229033  0.0115201118015522
  0.2464702393681810  0.0071230209762850  0.4029699023594375
  0.2533025100190566  0.0067771255958804  0.2786324477775859
  0.1822079354948290  0.9997975028280198  0.7783342467105042
  0.4640636285414986  0.0015483665796691  0.5931254060282671
  0.3492598624123652  0.9999503673388839  0.3943913756555482
  0.1964300420198823  0.9993575872555278  0.5959531020093181
  0.4181086223086112  0.6300710706807523  0.6160273912429911
  0.3816508171468515  1.0001857271284307  0.9000145139677213
  0.4830821968657257  0.9048683124922651  0.0061484470126621
  0.5266740550210076  0.8750766527949706  0.0283123658262793
  0.5040811971496845  0.6495934970042199  0.3079384777305437
  0.5041751211874930  0.8488285607512251  0.3076607951115817
  0.4511054528824422  0.5987337545441397  0.5077835370979807
  0.4507073522853239  0.8986822032371095  0.5032514440974577
  0.5161154704495593  0.8883400015563397  0.1270725221568902
  0.5162254112615662  0.6116380585577811  0.1271878849826987
  0.4979730772825003  0.6262751445174084  0.9218506708930945
  0.4977647365281029  0.8737928923712802  0.9214025957846268
  0.4647446837879508  0.6280698626739762  0.6826017812027535
  0.4648339188576492  0.8713094568235970  0.6804042772926349
  0.5796311667127361  0.8594898757106946  0.1292728449136588
  0.5797077743849008  0.6428787592768707  0.1269830636815082
  0.4732160138989913  0.6254646210426761  0.5280303641506245
  0.4726207731156845  0.8733746710096923  0.5321884217927693
  0.4954078666806795  0.6176015827446110  0.1945339971376850
  0.4953925113633006  0.8819692854509333  0.1951367693786709
  0.5265229396330560  0.6253490514357666  0.0276182194309118
  0.4830321925289763  0.5952047636608871  0.0054158670434548
  0.7337550674511822  0.3729077167003045  0.3134156046790830
  0.3680916348445873  0.9995758299576966  0.0946733866287310
  0.3904540910599720  1.0000991738124727  0.7651698438905034
  0.2335583185935194  0.9989596757404231  0.2083400430219428
  0.2138633380342733  0.0003869609837021  0.2823157897688304
  0.2657254231880445  1.0003975776100120  0.8139475485391399
  0.1926520066171755 -0.0000437253490117  0.2080566437863723
  0.4308459045056180  0.0001877700250108  0.4815552484024175
  0.4575218068940806  0.9997835714872735  0.2806101315147171
  0.2648640059055117 -0.0001613447490615  0.0882240589131152
  0.3587551954048488  0.9990841950518252  0.5078176846916357
  0.4608177137263239  1.0001168926794279  0.9790867085668666
  0.4138808279632214  1.0000738356545167  0.7808443483962043
  0.2410039450846050  0.0001120397882417  0.0817219549880931
  0.3878895652939079  0.0010350568377376  0.3987502880406527
  0.2549870434973642  0.9996528816431672  0.5243446399301364
  0.3565984388192375 -0.0003165348512612  0.2672318656191598
  0.2232952850390576  0.0001610275451577  0.0140141386276610
  0.4215522388199039  0.9925315666183088  0.2798245415304320
  0.3161272431988140  0.9997841756567364  0.6704488201883125
  0.4119616675854869  0.9926208592828050  0.4044314485004713
  0.1824732638127032 -0.0003664785134743  0.3935680733726085
  0.2194783947069583  0.9999460889839563  0.6792306436476386
  0.3488210834188697  0.0002117340475268  0.7783608305465346
  0.4305627143736277  0.0011221115110507  0.0876834225636368
  0.4964271906621134  0.9996159335469916  0.0938409672450485
  0.3173432403615657  0.9987700022846624  0.2784500148162448
  0.2972461361908047  0.9962216533229044  0.5928528069810264
  0.2876267368942363  0.0002788276141177  0.0611211538186470
  0.2085608481495354  1.0002655746220803  0.7800600654285013
  0.1706752119134417  0.9988749287531268  0.5895325789847213
  0.4437673661464016  1.0002830209167102  0.8961581730268217
  0.4510381721675216  1.0003969432926521  0.7848549846096929
  0.3812142009999179  0.9998200548935858  0.2776102467023912
  0.3167749329428298 -0.0006732142619607  0.8961648623277184
  0.3285507100200791  0.0014771737971080  0.0898488329040028
  0.2845494519751305  0.0038095824951756  0.4009604548118781
  0.3801723669500849  0.0000225043191727  0.5437991144975003
  0.4014081877731319  0.0013233927477294  0.2090979741772611
  0.4024408622322935  0.0004205372283795  0.5863066818849013
  0.4722557713065360  0.9992808072829442  0.7382501420784494
  0.3364058106487542  0.0014102958061037  0.5975814781412758
  0.6503391197068356  0.7503822509788448  0.4469696813606704
  0.7026185617361989  0.5967738723239260  0.8100367427405055
  0.6679859591206918  0.3745534977172335  0.4205913666594756
  0.6006007022676827  0.8944224330724873  0.4342997898438113
  0.5988199032357618  0.1081361082850794  0.4294159121294531
  0.6106312832905093  0.8675600511940568  0.0113134985256471
  0.6106337725426209  0.1329091330156565  0.0114147125729321
  0.6336190601091025  0.8816457868495988  0.9277003209431757
  0.6336928985813488  0.1185940277654337  0.9278716697009324
  0.6294511913059635  0.0978660616811952  0.3137037668138968
  0.7451198913994435  0.8907040598988833  0.5025956725808998
  0.6302009836299806  0.9036908708165285  0.3113347236065252
  0.6446122473363611  0.1034063641134833  0.1125864123447705
  0.6626338489784601  0.8522606909311290  0.8086665591853112
  0.6627083108207954  0.1476419025889197  0.8082563114145894
  0.6944812062368698  0.1482643594946472  0.7077089725062262
  0.6943538497802759  0.8529338706584129  0.7080827322758213
  0.6707478612145288  0.8995934075737114  0.3079383931570586
  0.6708417678829660  0.0988284007940428  0.3076608317874968
  0.6447293228843403  0.8978937237504252  0.1114611063544337
  0.7454018678174460  0.1079029133222018  0.5010667661333952
  0.7320416853654674  0.8779152907708241  0.9326634720530842
  0.7320514528324867  0.1224025871292660  0.9324997534885718
  0.6711914792795136  0.1101186079084369  0.6959357161576214
  0.6883006181941024  0.0981547847970658  0.6076205717076079
  0.6878475723092971  0.8989547660102184  0.6074898029442075
  0.7017501997666111  0.1094360859768240  0.4264960056471744
  0.7021819541584026  0.8897330011315600  0.4263965673453095
  0.7128495128420588  0.1206418409467270  0.6218452430593294
  0.7127238863645915  0.8790047408148547  0.6220132607756584
  0.6077925491090324  0.8591774051738781  0.3218961592884380
  0.6059375604338324  0.1396616189472505  0.3197474610119464
  0.6502205550640320  0.8737472275143835  0.3563846884385639
  0.6502391202119390  0.1268887183854212  0.3525614255170378
  0.5878791011820099  0.8794969924325999  0.0177020389103036
  0.5879288989423905  0.1209939500274551  0.0174919595406835
  0.7151293547955495  0.0982400161608602  0.0104917631344155
  0.7150763114372254  0.9014254721300166  0.0108955325398216
  0.7216456911479350  0.1427763886602020  0.1238410570014371
  0.7218630289336905  0.8581116742020497  0.1250964583447252
  0.6177721144181646  0.8487337707356566  0.5077835148639513
  0.6173740377565119  0.1486821287535041  0.5032513914726745
  0.6827821478112263  0.1383399709446917  0.1270724699968894
  0.6828920680794064  0.8616380521776150  0.1271878711274372
  0.7150312611079632  0.2500406023992927  0.8995867573615093
  0.9329063386492270  0.2503449214913023  0.7141089777762878
  0.7223121379343050  0.2486988157979612  0.3968337688159458
  0.9841296368939045  0.2525371105217196  0.2762807146388961
  0.8080501624816840  0.2502738001976516  0.0115200436266114
  0.7464702184723602  0.2571229813956741  0.4029698452496377
  0.7533025151392587  0.2567771896530445  0.2786324743969347
  0.6822079521148910  0.2497974439909550  0.7783341547775351
  0.9640636191163500  0.2515483506460079  0.5931253748268011
  0.8492598512470189  0.2499503737585956  0.3943914161525805
  0.6964300598547974  0.2493575718592569  0.5959531057019422
  0.8816508210871052  0.2501856597272205  0.9000145140242616
  0.8680916484339951  0.2495758484708380  0.0946735395610605
  0.6824732609456858  0.2496334856989415  0.3935681005839505
  0.8904541062641482  0.2500991449576397  0.7651698181631295
  0.9305627405917980  0.2511221800516125  0.0876833520193984
  0.9964271883356486  0.2496159144212003  0.0938409995798257
  0.9697301862155815  0.2504896157215208  0.0941148379017269
  0.6710382920618945  0.8902120659175990  0.6958840015291891
  0.7966829976091235  0.2502531544904388  0.1973551492960752
  0.9836724460040668  0.2503822087329569  0.4469696475051673
  0.6646397324137242  0.8762750552464665  0.9218506973886016
  0.6644313955055309  0.1237929261971249  0.9214026616948274
  0.6314113588124657  0.8780699580230152  0.6826017796985957
  0.6315005663838347  0.1213093669406296  0.6804042499213692
  0.7462978165608535  0.1094899595711836  0.1292728915415506
  0.7463744557270580  0.8928787087357408  0.1269831429369394
  0.6398827025187240  0.8754646384320449  0.5280303315183412
  0.6392874401651343  0.1233746209943229  0.5321884693264177
  0.6620745378102225  0.8676015165557114  0.1945340361699851
  0.6620591694491083  0.1319693271143955  0.1951367964434569
  0.6931896171497636  0.8753491140214537  0.0276182140168576
  0.6933407358267275  0.1250764994154148  0.0283123674109709
  0.6496988868112917  0.8452047269298995  0.0054158739466132
  0.6497489007410475  0.1548684584826565  0.0061483987007957
  0.5847752815600737  0.8800711351945653  0.6160274628563265
  0.5846822703542703  0.1196544975111851  0.6157452586319021
  0.8482312654547849  0.2501453205859369  0.9532942183251276
  0.8171944324103754  0.2495922251326087  0.4564217926225478
  0.8173432318713834  0.2487699219264933  0.2784500381084754
  0.6399960583158356  0.1287400436798038  0.8188354469071566
  0.7028768812113871  0.8907471287171472  0.1947507654998227
  0.5990667045083793  0.0003764903786210  0.6519913173615024
  0.7423433802488978  0.0001913740021391  0.9919769141505833
  0.6292954385140196  0.0009777834116298  0.7627663069572611
  0.5166829281162003  1.0001020262842388  0.9507684302501097
  0.8168782813769179  0.0004917737647819  0.8958505589016690
  0.5358871364308826  0.0009667539013262  0.0909456418596308
  0.5372886575885841  0.9993376362867076  0.4808276589837132
  0.5804054618456232  1.0001544744510524  0.9472250342477672
  0.6105037322227939  0.9997702034960121  0.2700896417613192
  0.7844539502945842  0.9965569580061573  0.4009331018680642
  0.5801559140566794  0.8903232152428380  0.8454687567270667
  0.5801588919088857  0.1099730724169319  0.8455054685719712
  0.5876299455095382  0.8907317332023171  0.7305649553731033
  0.5876553626197299  0.1095883728056328  0.7304209384832238
  0.5864154581715424  0.8738791872416710  0.3471982899802048
  0.5988295311125241  0.8910751239125522  0.9161320749923533
  0.5076549221874245 -0.0003442392370476  0.2695237140029573
  0.6105112206338786 -0.0001756229210239  0.5295478233554002
  0.6756248249734333 -0.0001952557474490  0.1806849942173497
  0.6172222415096300  1.0003455835322275  0.9393215374809823
  0.7472141582195244  1.0000739581944622  0.7808442849450350
  0.5743372934182228  0.0001120774825121  0.0817219140817935
  0.7212229275144568  0.0010350644966602  0.3987503059293702
  0.5883203720398790  0.9996529009980709  0.5243446141511167
  0.6899317761572400 -0.0003165712686272  0.2672319399097027
  0.5566286071930238  0.0001610180391328  0.0140140746842029
  0.7548855530754135  0.9925315336754602  0.2798245747332216
  0.6494605911595753  0.9997842111386470  0.6704488109115045
  0.7290462080196717  0.0004816558502653  0.0855303403819132
  0.7543060930914444  1.0001751340050233  0.8917613259210936
  0.7034280364441354  1.0002892602851610  0.6989520203760440
  0.5682120969642858  0.9992275285850784  0.5898660910589499
  0.8280326509868311  0.9999336287575727  0.7088505174910823
  0.7770547314225862  0.0002123434365440  0.1892083519398589
  0.5700668477274703  0.0000689996803062  0.7667516629790190
  0.6560218822830852  0.9998969641194464  0.7788141092343132
  0.7636233022086762 -0.0004860946550186  0.5968731982308404
  0.5988616795140494  0.1093251202302878  0.9160414753704809
  0.6111126369401290  0.1093920788830646  0.7314337478824381
  0.6110252458809149  0.8919281909692303  0.7321935246172004
  0.6180420239044239  0.8907178829588408  0.8453496708831341
  0.5984660317172824  0.8844739725675291  0.1992702063386123
  0.5983689403469044  0.1158634852973352  0.1973929496762815
  0.6826222494960708  0.1251454700763928  0.8577188760952580
  0.6826621628419614  0.8748357427869212  0.8571928908751389
  0.6615435578532560  0.1236202973472077  0.5272328075816635
  0.6620225218084324  0.8763790021259629  0.5289601183355106
  0.6834444314834268  0.1517299513819954  0.5007913430227924
  0.6836568262538852  0.8454373313450243  0.5002633638469223
  0.7006247546613615  0.1262765002149003  0.9226313497520473
  0.7006548406380262  0.8739375975374020  0.9223909126538300
  0.6125341488328018  0.8696574700298484  0.6193962312549841
  0.6126959327169844  0.1298842877913422  0.6175136710613743
  0.6383049734978552  0.8509533831158324  0.2103052320201085
  0.6384169949207797  0.1481384833264648  0.2129346274526797
  0.6712200878830860  0.8759392132499763  0.0290225895051683
  0.6713924006765606  0.1246107555619666  0.0278589133986129
  0.7027262430727053  0.1087945981202104  0.1941062648645461
  0.7337017066105951  0.8823484190490279  0.6888371888605369
  0.6398673133816812  0.8713671161570942  0.8182208292894416
  0.7337091572617365  0.1175976050296220  0.6887675846567906
  0.6946266648263697  0.1419776150038978  0.3145598536333247
  0.6180822651354507  0.1100281885408495  0.8452166628406328
  0.7327427182664688  0.1290656161516126  0.3115953723432641
  0.7337550364714805  0.8729077749948793  0.3134155984234665
  0.7026185808360026  0.0967738011173121  0.8100366966717639
  0.7026685449789525  0.9040781330273597  0.8099655861656032
  0.6679859813580373  0.8745535085084535  0.4205914693388670
  0.6678052711223033  0.1257165728993549  0.4197733558574747
  0.6198432070179508  0.8713755100049262  0.1275266521326820
  0.6198730682646063  0.1291627964880784  0.1279587803117003
  0.7220508991844620  0.1335847456279380  0.4989022895521208
  0.7219321202413160  0.8648082536378169  0.5015666566789930
  0.6511066037640478  0.8512158126631288  0.6261293695586637
  0.6514255481988647  0.1486206391487764  0.6264052193479587
  0.7246630662838583  0.1317244742790452  0.8251134461564099
  0.7246737898558814  0.8685190476356482  0.8251283261553902
  0.6322784957046116  0.8747098999307379  0.4228598031523417
  0.6332965645593863  0.1250641047451992  0.4245716631559472
  0.6947083273103049  0.8580188221046408  0.3149016198200194
  0.7941510466714247  1.0001168937368199  0.9790867886089363
  0.7972461215058716  0.2462217049951579  0.5928527827806005
  0.7085608303659865  0.2502656215782276  0.7800601038717844
  0.8065339840082228  0.1213670984149437  0.8182208254366121
  0.8066626893490282  0.3787400563099863  0.8188354373504031
  0.8377049434950768  0.1402120993480956  0.6958840489337212
  0.8378581373235342  0.3601187012822753  0.6959357505633647
  0.8549672645104607  0.3481548540543754  0.6076205942903018
  0.8545142396322309  0.1489547772709113  0.6074897315200449
  0.8684168874216264  0.3594361401444767  0.4264960730252044
  0.8695435644730592  0.1407469716346381  0.1947507107220419
  0.8688486061826382  0.1397330520196738  0.4263965933875642
  0.8793905486226433  0.1290047249378751  0.6220132761645840
  0.7744592465215699  0.1091774417837362  0.3218961448313043
  0.7726042304114880  0.3896616433004494  0.3197474974764093
  0.8168872235079022  0.1237473121001257  0.3563847073004920
  0.8169057496785831  0.3768886377352038  0.3525614646321132
  0.7545457963844228  0.1294969970663015  0.0177019939012340
  0.7545955709404271  0.3709939118775523  0.0174919291821526
  0.8795161861479223  0.3706418603988726  0.6218453173347233
  0.8693929358796258  0.3587945426116834  0.1941062950941488
  0.8380590745546870  0.3746105262678803  0.0278589572776496
  0.8378867681720773  0.1259392906431942  0.0290226186851932
  0.8613750141110846  0.1080187410019262  0.3149017303092783
  0.9003758452705597  0.3675976700712278  0.6887675760805667
  0.9003683481524091  0.1323483761633952  0.6888372506475419
  0.7651326740677457  0.1344740395029421  0.1992702327193141
  0.7650355939283068  0.3658634651105919  0.1973929619247783
  0.8492888860458742  0.3751454740492634  0.8577189706684978
  0.8493288582550299  0.1248357448409751  0.8571929304543227
  0.8282102189872654  0.3736202933734219  0.5272329312733506
  0.8286891564450293  0.1263790248103991  0.5289601561056675
  0.8501111271294941  0.4017298829285486  0.5007913076295002
  0.8503235312451342  0.0954373427112835  0.5002634353475122
  0.8672914195562461  0.3762765838706367  0.9226314381579230
  0.8673214861489299  0.1239376789261075  0.9223908598581724
  0.7792008071115607  0.1196574965473226  0.6193962819115183
  0.7793626219963856  0.3798843017885600  0.6175137369583726
  0.8049716412200717  0.1009534488301534  0.2103051852531597
  0.8050836531057795  0.3981384454860634  0.2129346175452699
  0.8817960396384318  0.3482401312311078  0.0104917496596855
  0.8817429943886574  0.1514255228562481  0.0108955089112868
  0.8883123718237038  0.3927764181515188  0.1238411247016287
  0.8885296897050960  0.1081116953162839  0.1250965088540776
  0.7840406925294622  0.3986822192033357  0.5032514537770523
  0.8494488007375475  0.3883400132804672  0.1270725220019289
  0.8495587504144045  0.1116380473294574  0.1271878130440996
  0.8313064153966381  0.1262749054324822  0.9218506345158161
  0.8310980843050528  0.3737929672077738  0.9214025759329121
  0.7980780143004935  0.1280698627879624  0.6826018047462645
  0.7981672474594217  0.3713094626395224  0.6804042539736790
  0.9129644782287651  0.3594898385339892  0.1292728433318641
  0.9130410903146705  0.1428788109363038  0.1269831586787594
  0.8065493590587370  0.1254646794987349  0.5280303028673041
  0.8059541150741680  0.3733746892137047  0.5321884515082914
  0.8287412067843004  0.1176015586479777  0.1945339656697440
  0.8287258367493525  0.3819693562081112  0.1951367353601041
  0.8598562618183128  0.1253490263324160  0.0276182469762042
  0.8600073800675213  0.3750766798594852  0.0283123441046754
  0.8163655240499694  0.0952047852554228  0.0054158976896710
  0.8164155117835223  0.4048682514534422  0.0061485541408025
  0.7844387761524441  0.0987336550244754  0.5077835066765384
  0.8612933172548430  0.3919775637725428  0.3145598398152364
  0.8375084661914014  0.3488284665930236  0.3076607372061475
  0.8610205318779736  0.1029338921269966  0.7080827582702869
  0.8987181199587077  0.3724026011806624  0.9324997965162662
  0.8987083578786776  0.1279153009982061  0.9326634918241971
  0.9120685054427506  0.3579027506895293  0.5010667411019571
  0.9117865876512165  0.1407041624396572  0.5025956574820727
  0.7672673841155511  0.1444224751136994  0.4342997549538311
  0.7654865748221885  0.3581361537423957  0.4294158858436737
  0.7772979443831316  0.1175599588575442  0.0113135054158079
  0.7773004383900858  0.3829090732135459  0.0114145540103908
  0.8002857480024398  0.1316457536630534  0.9277004024798606
  0.8003595752824861  0.3685939004344020  0.9278716980027758
  0.7961178500819075  0.3478659506506039  0.3137037354536938
  0.7968676490208325  0.1536908750260502  0.3113347499858695
  0.8113959776535351  0.1478937085496642  0.1114610950515912
  0.8112789026030133  0.3534063372391697  0.1125863873067099
  0.8293004920244668  0.1022607663109090  0.8086665076454462
  0.8293749654682776  0.3976418232076415  0.8082562063748208
  0.8611478737718471  0.3982643258278373  0.7077090106115346
  0.8374145368885572  0.1495935265922064  0.3079385699196354
  0.7876267379912847  0.2502788892035038  0.0611211784520311
  0.7999632551097511  0.3750642508569862  0.4245715670148525
  0.8913404650920352  0.1185189458285141  0.8251283615511719
  0.7648640000127280  0.2498386606223084  0.0882240628283093
  0.8587551826239035  0.2490842664294796  0.5078177277219802
  0.9608177379164483  0.2501168210943999  0.9790866798631812
  0.9138808374448502  0.2500738505506750  0.7808443724627034
  0.7410039505902782  0.2501121661324828  0.0817219437247575
  0.8878895753690277  0.2510351035045765  0.3987502784507706
  0.7549870570333570  0.2496529042369908  0.5243446542735959
  0.9575218078985327  0.2497836102962339  0.2806102280459574
  0.8565984394908999  0.2496834556000406  0.2672319603750470
  0.9215522250133061  0.2425315354786599  0.2798245753538937
  0.8161272483717423  0.2497842692743644  0.6704488910911802
  0.8957128906869154  0.2504816316233834  0.0855303053889967
  0.9209727592662262  0.2501751691657722  0.8917613079543730
  0.8700946885593371  0.2502891900927466  0.6989519673776630
  0.7348787761572019  0.2492275296378974  0.5898659641873767
  0.9946992909062365  0.2499335091122527  0.7088504782997410
  0.7232952872490297  0.2501610634068021  0.0140141330270330
  0.9308459110322361  0.2501877945842196  0.4815552876858692
  0.6926520547382263  0.2499562732614120  0.2080565920606329
  0.7657254323584192  0.2503976314570706  0.8139475087356889
  0.6706752274074362  0.2488749389338988  0.5895326212926129
  0.9437673898003611  0.2502830466887604  0.8961581076861395
  0.9510381613352223  0.2503970115014039  0.7848549632910122
  0.8812141999383172  0.2498200423712154  0.2776102565184936
  0.8167749234380918  0.2493266575933562  0.8961648396218258
  0.8285506891546751  0.2514772023618015  0.0898488308658810
  0.7845494702399517  0.2538095790241648  0.4009604974105672
  0.8801723778656256  0.2500224385661441  0.5437990663009833
  0.9014081956400813  0.2513233694205293  0.2090979652133461
  0.9024408489725059  0.2504205774361494  0.5863066725724819
  0.9722557642522002  0.2492808858333815  0.7382501580749121
  0.8488210902214769  0.2502118413907865  0.7783608799753027
  0.8364058170433792  0.2514102430182411  0.5975815034030088
  0.7194784085798507  0.2499460709423179  0.6792305904817617
  0.9119616589087335  0.2426209065057366  0.4044314424454764
  0.7335583258888616  0.2489595936868397  0.2083400397201344
  0.7138633508577438  0.2503869339129367  0.2823157271476834
  0.9437213772827531  0.2502124658269140  0.1892083514152570
  0.7367335392854021  0.2500689230932244  0.7667516923689550
  0.8226885823300286  0.2498970426758565  0.7788141615400695
  0.9302899442477525  0.2495138009099295  0.5968731962223851
  0.7777792900806245  0.3593919513694828  0.7314336968453485
  0.7776919251596484  0.1419282858477443  0.7321934689679777
  0.7847086685652299  0.1407177975775823  0.8453496242236942
  0.7847489143200606  0.3600282009385596  0.8452166828404971
  0.8994094309643833  0.3790656483685052  0.3115954165462997
  0.9004217124811605  0.1229078289889927  0.3134155387692378
  0.8692852594840039  0.3467736681950536  0.8100367342510539
  0.8693352291840062  0.1540780863811172  0.8099655074719189
  0.8346526522691911  0.1245535618030987  0.4205913604210257
  0.8344719526456382  0.3757165104086165  0.4197732616046967
  0.7865098463069067  0.1213754866012418  0.1275265922480072
  0.7865397448839835  0.3791627394853112  0.1279587631096805
  0.8887175653065362  0.3835847913329684  0.4989023583147313
  0.8885987654975230  0.1148082637600671  0.5015667329971539
  0.8177732572870787  0.1012158994683371  0.6261293774928975
  0.8180922217490286  0.3986206697351631  0.6264051808225417
  0.8913297473652039  0.3817245254574822  0.8251134169386526
  0.7655283610873838  0.3593250627347568  0.9160415029944561
  0.7989451657751077  0.1247096938603740  0.4228598019538161
  0.7654961963911010  0.1410750694528932  0.9161320449526621
  0.7543220169545060  0.3595884797013370  0.7304209680203323
  0.7838889018576416  0.2503455203043813  0.9393216054917740
  0.8422915195097853  0.2498047930879875  0.1806850685780041
  0.7771779034388994  0.2498243574687050  0.5295477845291419
  0.7470721238163609  0.2501545719032890  0.9472250398935448
  0.7657334167384501  0.2503764715763301  0.6519912725667393
  0.9090100545232901  0.2501914731411359  0.9919769886591305
  0.7959621171989874  0.2509778054668946  0.7627662309724573
  0.6833495693864956  0.2501020158102268  0.9507684618855988
  0.9835449081083748  0.2504917465338883  0.8958505447647754
  0.7025538088869444  0.2509668422461605  0.0909456991996956
  0.7039553122221711  0.2493376873692658  0.4808276978449448
  0.7771703958809412  0.2497701028086760  0.2700897049599157
  0.6743215937459913  0.2496557239236388  0.2695237456416008
  0.9511206417250431  0.2465570117867514  0.4009330832553779
  0.7468225594479578  0.1403233241484356  0.8454687433788199
  0.7468255585979335  0.3599730573609680  0.8455055253375845
  0.7542966224801873  0.1407317157480093  0.7305650429156400
  0.7530821437171356  0.1238792462833503  0.3471983531608376
  0.6920885220767612  0.9990843995949424  0.5078176171004021
  0.5981973427925275 -0.0001613965562219  0.0882240238083926
  0.7908551459409644  0.9997837135225931  0.2806101665066352
  0.7533025112060887  0.7567771126680007  0.2786325145680457
  0.6822079121056610  0.7497974940184765  0.7783341984820390
  0.9640636280823566  0.7515483709555811  0.5931254055777040
  0.8492598675106591  0.7499504322233932  0.3943913404031493
  0.6964300415696046  0.7493575794003561  0.5959531681692805
  0.8816508109784502  0.7501856406670191  0.9000145412438859
  0.8680916471448126  0.7495758998693923  0.0946734125081791
  0.7464702343451253  0.7571229621298916  0.4029698802843718
  0.6824732704752081  0.7496335167710177  0.3935681068401378
  0.9305627271795935  0.7511221804964628  0.0876834017461225
  0.9964272063028266  0.7496159036197677  0.0938409212242012
  0.8173432310913156  0.7487699451998646  0.2784499965722998
  0.7972461236368593  0.7462216811046760  0.5928528516032966
  0.7876267478801861  0.7502788735060084  0.0611211372219352
  0.7085608393869385  0.7502656034972279  0.7800601218276256
  0.6706752299875084  0.7488750052535972  0.5895326854442673
  0.8904541072697544  0.7500990271620066  0.7651698476715412
  0.8080501262141541  0.7502738066698171  0.0115201140336136
  0.9841296612506178  0.7525370869939417  0.2762807642311282
  0.7223121223732509  0.7486988712287050  0.3968337475762020
  0.6398827062724811  0.3754646148149797  0.5280302977022967
  0.6392874391795532  0.6233746638154424  0.5321883880492920
  0.6620745322342255  0.3676015911072683  0.1945339946761809
  0.6620591749896325  0.6319693014613476  0.1951367551646341
  0.6931896266669046  0.3753490406846016  0.0276181678912369
  0.6933406952634285  0.6250766874412923  0.0283124044906455
  0.6496988715416939  0.3452047103314668  0.0054159448840851
  0.6497488570742324  0.6548682531316857  0.0061484549249122
  0.5847752920403332  0.3800710597403337  0.6160273497294182
  0.5846822686672668  0.6196545608825734  0.6157452849019317
  0.8482312971997324  0.7501453066200026  0.9532942507899248
  0.9836724953283987  0.7503822588988629  0.4469696739684217
  0.8171944132264560  0.7495923019228662  0.4564217082580833
  0.7966829982503588  0.7502531501599763  0.1973551311562056
  0.9697301704901797  0.7504896971189408  0.0941147972862901
  0.7150312407409228  0.7500406066984355  0.8995867877249256
  0.9329063068701106  0.7503450298305797  0.7141089306446764
  0.9437673895715106  0.7502831360474282  0.8961581189183743
  0.9510381669796146  0.7503969495680296  0.7848549532351654
  0.8812141930076675  0.7498200300389329  0.2776102842067636
  0.8167749641179606  0.7493266665562490  0.8961649004278923
  0.8878895950919276  0.7510351699771683  0.3987502540982523
  0.7549870498741434  0.7496528447081134  0.5243446108438677
  0.8565984489352894  0.7496834861187035  0.2672319295141881
  0.7232952856953054  0.7501611014265771  0.0140141142134983
  0.9215522380267516  0.7425315497834891  0.2798245927688036
  0.8161272425521368  0.7497842427483333  0.6704488832230387
  0.8957128914180544  0.7504816350141442  0.0855303593142273
  0.9209727557694098  0.7501751123036940  0.8917612956701672
  0.8700947510253557  0.7502891177219941  0.6989519760124193
  0.7348787806968207  0.7492275433935812  0.5898660261487563
  0.9946993010751661  0.7499335835384948  0.7088504767139751
  0.9437213808458654  0.7502124125941783  0.1892082615295653
  0.7367335083010297  0.7500689782835543  0.7667518170701315
  0.8226885595912369  0.7498970200272552  0.7788140574341879
  0.9302899405196089  0.7495138191156173  0.5968731919503762
  0.7838889356108416  0.7503456365812383  0.9393214984508260
  0.8422914991353153  0.7498047282114664  0.1806850145051070
  0.7410039584325909  0.7501120346252438  0.0817219045896110
  0.7463744532446398  0.3928787784162902  0.1269830818545422
  0.9138808409947362  0.7500738173164643  0.7808443230467658
  0.8587551942901759  0.7490842394334012  0.5078176905843084
  0.8285507325250020  0.7514771228177554  0.0898488372500549
  0.7845494471763935  0.7538096143754468  0.4009604283670061
  0.8801723651464820  0.7500224753218950  0.5437991218635724
  0.9014081981430170  0.7513234166284852  0.2090979806013912
  0.9024408559881029  0.7504206095158349  0.5863067054144083
  0.9722557697625511  0.7492808403109332  0.7382501952148097
  0.8488210889358604  0.7502117871304165  0.7783608596580150
  0.8364058037191766  0.7514102261363262  0.5975814624504114
  0.7194784114484435  0.7499460896269420  0.6792306692983475
  0.9119616638136433  0.7426208044044836  0.4044314461516424
  0.7335583375545301  0.7489596596437643  0.2083400410181280
  0.7138633595222929  0.7503869956759788  0.2823157852359367
  0.7657254261142924  0.7503976754241473  0.8139475083632944
  0.6926519994734903  0.7499561917095540  0.2080567240309919
  0.9308459204641180  0.7501877044088251  0.4815552666838752
  0.9575218285250406  0.7497836203359881  0.2806101541671633
  0.7648640070446877  0.7498386502759564  0.0882239389285723
  0.9608177271671612  0.7501168007725202  0.9790867511133317
  0.7771778898061572  0.7498243722101404  0.5295478523519724
  0.7462978078639235  0.6094899637640081  0.1292728329098063
  0.6314113842121842  0.3780698388496632  0.6826017585219528
  0.6834444552588047  0.6517299591770017  0.5007913673700101
  0.6836568342750871  0.3454372570169371  0.5002634745166126
  0.7006247496044504  0.6262765129065733  0.9226313030899373
  0.7006548388158973  0.3739376539409386  0.9223909856151679
  0.6125341537813039  0.3696574085368814  0.6193962314149486
  0.6126959498388033  0.6298843093454941  0.6175136367380920
  0.6383049467364741  0.3509534433220138  0.2103052267601835
  0.6620225163377498  0.3763790103009539  0.5289600154832916
  0.6384170223279572  0.6481384466259736  0.2129345921080595
  0.6713924257672217  0.6246106550844593  0.0278589229868736
  0.7027262387412385  0.6087945483743550  0.1941062582701957
  0.7028768948292236  0.3907471213757023  0.1947507217945176
  0.6398673291327276  0.3713670752301199  0.8182209305156285
  0.6399960641463530  0.6287401193637953  0.8188354922090672
  0.6710382772509328  0.3902121627414241  0.6958840173645798
  0.6711914794804553  0.6101186616671694  0.6959356935786182
  0.6712200848506292  0.3759391946685186  0.0290225601841281
  0.6615435573805217  0.6236203524496405  0.5272328398364305
  0.6826621501232595  0.3748357599720508  0.8571928406088219
  0.6826222665622875  0.6251453622947752  0.8577189311132373
  0.6678052659089704  0.6257166121362066  0.4197734131241913
  0.6198431936984502  0.3713755208468322  0.1275266315853866
  0.6198730521364265  0.6291627505640994  0.1279587629240499
  0.7220508948946083  0.6335848161273553  0.4989023035398117
  0.7219321061890117  0.3648081722450611  0.5015666760293528
  0.6511065884890815  0.3512158799729670  0.6261294278806935
  0.6514255340239160  0.6486207254773495  0.6264052176055972
  0.7246630584704732  0.6317244872724708  0.8251133917589047
  0.7246737723941216  0.3685191300073986  0.8251282695087804
  0.6322784986782330  0.3747098401347965  0.4228598302933479
  0.6332965784200761  0.6250641984082141  0.4245716794932656
  0.6946266427599892  0.6419775947813108  0.3145597554668155
  0.6947083258041435  0.3580187644535285  0.3149016462723726
  0.7337091685920045  0.6175976821412786  0.6887676372142694
  0.7337017146011591  0.3823484371325475  0.6888372018783385
  0.5984660358737617  0.3844739964590280  0.1992702635879302
  0.5983689419172311  0.6158635038247666  0.1973929065292198
  0.6883005961884653  0.5981548002915282  0.6076206911730273
  0.6878475824866361  0.3989545809066954  0.6074897371920703
  0.7017502170330778  0.6094360564357083  0.4264960047790515
  0.7021819424917431  0.3897330960590564  0.4263966480797534
  0.6336929161446664  0.6185939434127214  0.9278716545891103
  0.6294511676998825  0.5978661007867943  0.3137036239968327
  0.6302009826548214  0.4036907438952214  0.3113347151970993
  0.6447293256593662  0.3978937522234157  0.1114610531402485
  0.6446122331920582  0.6034064003782958  0.1125863167594895
  0.6626338552603721  0.3522607249271036  0.8086665787565998
  0.6627082976093325  0.6476419328982027  0.8082562624056709
  0.6944812022881179  0.6482643186458562  0.7077088529564580
  0.6943538567081989  0.3529338738321320  0.7080827789511953
  0.6707478689086508  0.3995934757726969  0.3079384942796711
  0.6708417788800380  0.5988285124620881  0.3076607642309881
  0.6177721176765097  0.3487337525163877  0.5077834945193513
  0.6173740373982252  0.6486821625335208  0.5032513844987436
  0.6827821579037618  0.6383400065045827  0.1270724258059889
  0.6828920721146696  0.3616381065312870  0.1271879386020219
  0.6646397503797630  0.3762750892063508  0.9218506133650470
  0.6644313862784000  0.6237930081917481  0.9214026752621216
  0.6336190707571806  0.3816458055662056  0.9277002638356165
  0.6315005642644019  0.6213094594789076  0.6804042736309098
  0.6106337688132695  0.6329090561611783  0.0114145922406434
  0.5988199024148737  0.6081360893291987  0.4294158564156905
  0.7128494989517090  0.6206418649300126  0.6218452346046849
  0.7127238760495894  0.3790047720956242  0.6220132914490437
  0.6077925842051866  0.3591773896070389  0.3218961477371260
  0.6059375775830615  0.6396616995752936  0.3197475259764878
  0.6502205608172688  0.3737473387750664  0.3563846874057507
  0.6502391055687019  0.6268887202188859  0.3525614151592199
  0.5878791281170808  0.3794969631321268  0.0177019380996646
  0.5879289015592966  0.6209939039921901  0.0174919656115628
  0.7151293693609877  0.5982401869138130  0.0104917988318960
  0.7150763102988014  0.4014255258078324  0.0108954939215023
  0.7216456965146123  0.6427764976014589  0.1238411367521077
  0.7218630581293786  0.3581116964558313  0.1250964541381051
  0.7320514519262684  0.6224025101924050  0.9324997703446296
  0.7320417156776176  0.3779153086500397  0.9326635166426265
  0.7454018617541928  0.6079030127190385  0.5010667570568937
  0.7451199091826651  0.3907040475053570  0.5025957112350201
  0.6006007263586450  0.3944224940484043  0.4342998335060632
  0.6106313201705461  0.3675599849107021  0.0113136127337373
  0.7470721172976990  0.7501545264280469  0.9472249730512355
  0.7657333842615156  0.7503765207590120  0.6519912958426159
  0.9090100533869555  0.7501914940834346  0.9919769333071036
  0.9129644706222533  0.8594899338974409  0.1292728127866415
  0.9130411095132566  0.6428787476065709  0.1269830971848853
  0.8065493469204613  0.6254647511281647  0.5280303540532997
  0.8059541051689573  0.8733746363657898  0.5321884786447220
  0.8287412050514995  0.6176014603971229  0.1945339770937344
  0.8287258441252899  0.8819693590984986  0.1951367707792673
  0.8598562356262295  0.6253490309402536  0.0276182807784739
  0.7981672445558087  0.8713094746464082  0.6804042693112932
  0.8600073979603481  0.8750765954253036  0.0283122985216959
  0.8164155320567617  0.9048683820047155  0.0061484149476064
  0.7514419641569183  0.6300710717494449  0.6160273801152211
  0.7513489464749066  0.8696545075811488  0.6157452295637312
  0.6815646468578014  0.0001453295862557  0.9532942656097815
  0.8170058268342550  0.0003822896893941  0.4469697354702339
  0.6505277178444738  0.9995922421967296  0.4564217636771665
  0.6300163253499494  0.0002532316396579  0.1973551304349341
  0.8163655152528185  0.5952046829044726  0.0054158746146073
  0.7980780412139625  0.6280698244959368  0.6826017925931713
  0.8310980615274550  0.8737930149756484  0.9214027468357056
  0.8313063942243768  0.6262750295458526  0.9218507360110409
  0.7773004328659240  0.8829090751690425  0.0114145861288634
  0.8002857457594069  0.6316459448332941  0.9277002708431172
  0.8003595661036725  0.8685939210668975  0.9278717817312928
  0.7961178648961438  0.8478661383951004  0.3137037544421372
  0.7968677004487362  0.6536908641429686  0.3113348460893559
  0.8113959731165962  0.6478937418349582  0.1114611104669580
  0.8112788852199835  0.8534064180785339  0.1125863918249557
  0.8293005001173067  0.6022606201635267  0.8086664835233123
  0.8293749802586222  0.8976418674122310  0.8082562720299192
  0.8611478783368416  0.8982643061424598  0.7077089395422256
  0.8610205204703174  0.6029337972625481  0.7080828157785082
  0.8374145159445213  0.6495934514305647  0.3079385469945903
  0.8375084710369145  0.8488285384060389  0.3076607772806947
  0.7844388081944907  0.5987335945902423  0.5077835381791314
  0.7840407012467130  0.8986821487832446  0.5032514152893177
  0.8494488025859794  0.8883398799130484  0.1270725396861722
  0.8495587590081143  0.6116380676509852  0.1271879002417778
  0.8030635199448146  1.0004896706939217  0.0941148540026586
  0.5483646176346072  0.0000406196334724  0.8995867964603289
  0.7662396385342535  0.0003450451381276  0.7141089638122150
  0.5556454339903608  0.9986989304669416  0.3968337825625934
  0.7145475297219059  0.9998200072158785  0.2776102863689965
  0.6501082940138121 -0.0006731929191672  0.8961648669268294
  0.6618840309495967  0.0014772431464223  0.0898489063893189
  0.6178828002496447  0.0038095731828039  0.4009604772946381
  0.7135057156490514  0.0000224896598465  0.5437991003809478
  0.7347415149025452  0.0013234233205990  0.2090979451267441
  0.7357741980434310  0.0004205618854915  0.5863066823921708
  0.8055891113341008  0.9992806926161488  0.7382501959697415
  0.6821544104437754  0.0002117527849235  0.7783607757659367
  0.6697391396996454  0.0014102326369345  0.5975814738228054
  0.5528117562867041  0.9999461091136422  0.6792305793358404
  0.7452949916998258  0.9926210030910571  0.4044314141273377
  0.5668916469978459  0.9989596616755447  0.2083400478021863
  0.5471966819909840  0.0003869641228310  0.2823157896909276
  0.5990587626562085  1.0003977052178863  0.8139474971766667
  0.5259853541769671 -0.0000437500450313  0.2080566670294180
  0.7641792313882568  0.0001878222570319  0.4815552323615247
  0.7843715114371785  1.0003970217174321  0.7848549069671124
  0.7772979575518636  0.6175600427439037  0.0113134565517829
  0.7771007130585023  1.0002830895179475  0.8961582299344241
  0.5418941827403463  1.0002655304124901  0.7800601220392630
  0.8174629780373026  0.0025370988433101  0.2762806518683982
  0.6413834803348724  0.0002738056635389  0.0115200906754849
  0.5798035841866306  0.0071230597533744  0.4029697872207079
  0.5866358418979243  0.0067771217293102  0.2786324835884232
  0.5155412634898932  0.9997975217966777  0.7783342703071421
  0.7973969722385637  0.0015483130644704  0.5931253919827623
  0.6825931823959978  0.9999503944794063  0.3943914061038964
  0.5297633907602367  0.9993575539434344  0.5959530845922780
  0.7149841672388851  1.0001857256846112  0.9000144917606546
  0.7014249517061836  0.9995758776355377  0.0946733800399796
  0.5158065937336883 -0.0003665064146809  0.3935680632868126
  0.7237874476962791  1.0000990612587712  0.7651697833913010
  0.7638960382944975  0.0011221199767952  0.0876834902158301
  0.8297605180915646  0.9996159791192935  0.0938410300325466
  0.6506765890191731  0.9987699623021096  0.2784499870001327
  0.6305794729502486  0.9962216799052007  0.5928528908086018
  0.6209600588495608  0.0002788404719219  0.0611211663080483
  0.5040085433576571  0.9988749418225150  0.5895325701626943
  0.7654865638298111  0.8581360628232149  0.4294158679010567
  0.7672673761495385  0.6444224919987259  0.4342997912012001
  0.9117865889586759  0.6407040295207348  0.5025956148416386
  0.8692852708727524  0.8467739304963688  0.8100365908008769
  0.8693352317942740  0.6540781110649561  0.8099654722709403
  0.8346526443291756  0.6245534405601286  0.4205913686573235
  0.8344719440171890  0.8757164714436934  0.4197732919378377
  0.7865098553619021  0.6213755311091765  0.1275266045744408
  0.7865397377739832  0.8791627300795998  0.1279587912015399
  0.8887175503120850  0.8835848033550927  0.4989023581684690
  0.8885987783952524  0.6148081584146425  0.5015666826838466
  0.8177732524752586  0.6012160126660008  0.6261293971831037
  0.8180922116212501  0.8986206648000674  0.6264051791501966
  0.8913297200901054  0.8817244858743432  0.8251133871216788
  0.8913404540564286  0.6185190034316749  0.8251283438571592
  0.7989451745781199  0.6247098221523438  0.4228598110795366
  0.7999632493741737  0.8750642102385042  0.4245715812087526
  0.8612933270368706  0.8919775485625149  0.3145598198753047
  0.8613750261247473  0.6080188374024882  0.3149017082403610
  0.9003758369193460  0.8675977273486890  0.6887676617757010
  0.9004217078986723  0.6229077787180625  0.3134155635214615
  0.9003683869929772  0.6323483828537770  0.6888372522257858
  0.8994094276484789  0.8790656005349736  0.3115953714991589
  0.7847086542553008  0.6407178642946154  0.8453496488694329
  0.7959621150608898  0.7509778699889571  0.7627663064659986
  0.6833495783922787  0.7501020162656298  0.9507684529590341
  0.9835449236109303  0.7504917774249770  0.8958505505186012
  0.7025537965379919  0.7509668202611047  0.0909456296901184
  0.7039553238397092  0.7493375409535795  0.4808276070643508
  0.7771704006005844  0.7497700543644089  0.2700896218394137
  0.6743216141811587  0.7496556989200580  0.2695237213862107
  0.9511206209590973  0.7465570218519316  0.4009331192641912
  0.7468225711391363  0.6403233268763502  0.8454687682236169
  0.7468255548323284  0.8599729682405456  0.8455055295113409
  0.7542966204572844  0.6407316859074507  0.7305650173553887
  0.7543220278094425  0.8595884232369011  0.7304210038097205
  0.7530821335422903  0.6238791724045877  0.3471982893714253
  0.7654961955509725  0.6410750295678346  0.9161320217585888
  0.7655283470369550  0.8593250822527819  0.9160415030942598
  0.7777793007356808  0.8593919947476922  0.7314337318911791
  0.7776919246351621  0.6419282114593156  0.7321935385620565
  0.7847489177323548  0.8600281592783772  0.8452166705608044
  0.7026685784882561  0.4040781724100456  0.8099655110935460
  0.7651326469639043  0.6344740496739850  0.1992702868659624
  0.8492889006569044  0.8751455733141850  0.8577189292594164
  0.8684168833455738  0.8594361644126226  0.4264959325687966
  0.8688486207790357  0.6397329782172030  0.4263965492629705
  0.8795161854719357  0.8706417611020626  0.6218453510785086
  0.8793905686770226  0.6290047180373427  0.6220133255475218
  0.7744592265064056  0.6091773918506658  0.3218961721936824
  0.7726042271838225  0.8896617985541742  0.3197475051394562
  0.8168872337525214  0.6237473782122488  0.3563846156223965
  0.8169057387160080  0.8768886783375519  0.3525614846331709
  0.7545457603170549  0.6294970213964213  0.0177019859518538
  0.7545955688965189  0.8709939762721890  0.0174919102610201
  0.8817960088895475  0.8482401134051614  0.0104917638348745
  0.8817429681389686  0.6514256650875114  0.0108954118636613
  0.8883123775865077  0.8927764652266338  0.1238411519184085
  0.8885296984099402  0.6081116660716003  0.1250965421957534
  0.8987181146282047  0.8724026437640375  0.9324997805183330
  0.8987083644686881  0.6279153149675990  0.9326634335617965
  0.9120685212016347  0.8579028512457653  0.5010667009536688
  0.8545142474223330  0.6489547203136187  0.6074896383771772
  0.7650356085751594  0.8658635474362282  0.1973929508873669
  0.8549672710703841  0.8481548405401212  0.6076205576419905
  0.8377049555930796  0.6402120404262558  0.6958840411212853
  0.8493288513379605  0.6248356778533902  0.8571927923622920
  0.8282102344241389  0.8736203821379857  0.5272328303601551
  0.8286891539892873  0.6263789744563827  0.5289601508663831
  0.8501111525173133  0.9017298360051459  0.5007914753609696
  0.8503235304127339  0.5954373291571859  0.5002634458238319
  0.8672914327133946  0.8762765847209486  0.9226314733986387
  0.8673215079142618  0.6239376377778798  0.9223909023004260
  0.7792008347621326  0.6196574509588452  0.6193963114402019
  0.7793626079455591  0.8798843047490509  0.6175137794657864
  0.8049716280110345  0.6009533742506193  0.2103052155088438
  0.8050836554339162  0.8981386115271893  0.2129345613983772
  0.8378867759916138  0.6259391922063553  0.0290226244451351
  0.8380590616936595  0.8746105975118752  0.0278588713159136
  0.8693928819863915  0.8587945724210816  0.1941062532597266
  0.8695435945822642  0.6407470590492799  0.1947507079880606
  0.8065339741176655  0.6213671260230683  0.8182209614867326
  0.8066627203724133  0.8787400167951307  0.8188354713943343
  0.8378581399194880  0.8601187327952267  0.6959356511713750
  0.5148979779492081  0.7501453282378009  0.9532942143845267
  0.7513489490497117  0.3696544650844547  0.6157452132988125
  0.9953925197714635  0.6319692645199941  0.1951368146186171
  0.0990587556414486  0.2503976370268253  0.8139475159111358
  0.0471966667931868  0.2503869628539148  0.2823157649669837
  0.0668916546126737  0.2489596690556072  0.2083400396158416
  0.2452949868661078  0.2426209154154679  0.4044314555006946
  0.0528117375711375  0.2499460619498703  0.6792306494586058
  0.1697391456597223  0.2514102324802486  0.5975815237502137
  0.1821544216973821  0.2502117242636318  0.7783608474947350
  0.3055891109391572  0.2492807640691410  0.7382501785687310
  0.2357741815544025  0.2504205487046818  0.5863066719534644
  0.2347415192642429  0.2513234243050781  0.2090979708753483
  0.2135057085746563  0.2500225390867030  0.5437991047625877
  0.1178827767218240  0.2538095241588165  0.4009604601429992
  0.0259853433717026  0.2499563394754480  0.2080566384066058
  0.1618840480761160  0.2514771958021047  0.0898488155161906
  0.2145475287671865  0.2498200045730809  0.2776102392887445
  0.2843714930674003  0.2503969882913572  0.7848549921953559
  0.2771007007067862  0.2502830776083158  0.8961581028759236
  0.0040085537835073  0.2488749387251672  0.5895325939435162
  0.0418941724788915  0.2502655748415424  0.7800600998943127
  0.9180156391605224  0.6196544628865590  0.6157451938439100
  0.2337550392596990  0.6229077961657964  0.3134155443159730
  0.2327427357306536  0.8790655249025597  0.3115953824183202
  0.1180822443854727  0.8600281123201231  0.8452166589589792
  0.1180420135384672  0.6407178082008490  0.8453496218450448
  0.1110252620736898  0.6419282368776619  0.7321934711988717
  0.1111126288611459  0.8593920317230648  0.7314337644551717
  0.1501082736304667  0.2493267747559244  0.8961648841175738
  0.0988616763645126  0.8593250433983396  0.9160414824997241
  0.2641792365921956  0.2501877476096770  0.4815552822736791
  0.0981973353199164  0.2498386883444139  0.0882240506322566
  0.1292954475842738  0.2509779014776284  0.7627662666027881
  0.2423433629734159  0.2501914504078079  0.9919769623095698
  0.0990667171866513  0.2503765131942469  0.6519913074067751
  0.0804054431852522  0.2501545992864852  0.9472249846811153
  0.1105112275584532  0.2498243970148400  0.5295478318014797
  0.1756248224196517  0.2498048191864322  0.1806850296436475
  0.1172222349058491  0.2503455669910038  0.9393215650017334
  0.2636232907809753  0.2495138085059297  0.5968732024559343
  0.1560218955678078  0.2498969884524425  0.7788140323003728
  0.0700668495490858  0.2500688908725315  0.7667517215680973
  0.2770547065167363  0.2502124475566903  0.1892083215911648
  0.3280326322753916  0.2499335703450373  0.7088504870983160
  0.2908551318307919  0.2497836436931407  0.2806101413072391
  0.0682121040824620  0.2492275389186649  0.5898660339934664
  0.2543060731769070  0.2501751191835618  0.8917612574869289
  0.2290462062526440  0.2504815731510979  0.0855303072121796
  0.1494605774333837  0.2497841890870712  0.6704488331944038
  0.2548855566379571  0.2425315941080110  0.2798245091813992
  0.0566286133399846  0.2501609867685012  0.0140140804839827
  0.1899317746230645  0.2496834626544467  0.2672319689447439
  0.0883203847422177  0.2496528965594563  0.5243446111275681
  0.2212228979113080  0.2510350678620519  0.3987502622874135
  0.0743372837780304  0.2501120229296799  0.0817219359232013
  0.2472141629151609  0.2500738515127370  0.7808443621364802
  0.2941510541062511  0.2501168130136381  0.9790866776756794
  0.1920885286260677  0.2490842012215036  0.5078176571542420
  0.2034280264085699  0.2502891444562089  0.6989520074172829
  0.0166829206130133  0.2501020309123065  0.9507683998076196
  0.0988295035667992  0.6410750967513479  0.9161320122394095
  0.0876553458116108  0.8595884508529892  0.7304208747795644
  0.9838610723674411  0.9995922107073081  0.4564217585954132
  0.9633496625780547  0.0002530630380002  0.1973550851837857
  0.1363968244827221  1.0004896948441424  0.0941148160129107
  0.8816979361671242  0.0000406116327117  0.8995868043345999
  0.0995729800229469  0.0003449842049147  0.7141090260336789
  0.8889788090702835  0.9986987220715248  0.3968337967182803
  0.1507963131861096  0.0025370944665652  0.2762807147631488
  0.9747168089613094  0.0002738471214337  0.0115200886588540
  0.9131368983408972  0.0071230501250284  0.4029698636114070
  0.9199691885506319  0.0067771625419480  0.2786324722387951
  0.8488745908798961  0.9997974893513111  0.7783342567498521
  0.1307303040102867  0.0015483125335050  0.5931253858880926
  0.1503391461777326  0.0003822347424964  0.4469696984832037
  0.0159265244669633  0.9999503610770722  0.3943913555044426
  0.0483174800893410  1.0001857142037827  0.9000145319773731
  0.0347583055431750  0.9995758114018399  0.0946734697169577
  0.8491399554188520 -0.0003664248194863  0.3935680060925804
  0.0571207724681271  1.0000990729871797  0.7651699121819112
  0.0972293757954806  0.0011221819899189  0.0876834262749053
  0.1630938529950822  0.9996158965510228  0.0938410032521059
  0.9840099018403990  0.9987699298782302  0.2784499746798207
  0.9639128146622060  0.9962216873548680  0.5928528576039915
  0.9542934249496655  0.0002788272531844  0.0611211355805256
  0.8752275155098214  1.0002654404609226  0.7800600938714430
  0.8373418800269387  0.9988749753509373  0.5895325545652883
  0.1815646219471855  0.7501453318522208  0.9532942353738467
  0.8630967358710345  0.9993575409410675  0.5959530891449362
  0.0864154468200105  0.6238791970849669  0.3471983015797282
  0.0148979445205493  0.0001453036084736  0.9532942856343437
  0.3170057949957071  0.2503822740500851  0.4469696755771563
  0.0876299453553138  0.6407317536962068  0.7305649854820775
  0.0801588810637216  0.8599730324039461  0.8455055222092982
  0.0801558913453959  0.6403232558229827  0.8454688171866596
  0.1209600697739789  0.2502788752097086  0.0611211664914415
  0.1305794562134239  0.2462216510528201  0.5928528423701431
  0.1506765693152144  0.2487699486840847  0.2784499836488379
  0.3297605433484168  0.2496159081203057  0.0938409511315456
  0.2638960479237469  0.2511221850913439  0.0876834264036259
  0.2237874442712184  0.2500991218028208  0.7651698084839211
  0.0158066105393803  0.2496334967449397  0.3935680395872727
  0.2014249752700058  0.2495758884207301  0.0946734736817858
  0.2149841506445694  0.2501857274175610  0.9000145465114278
  0.1815646325818649  0.2501452729032363  0.9532942634322381
  0.0297633704894484  0.2493575416170819  0.5959531021088250
  0.2973969717618275  0.2515483622370764  0.5931253842033398
  0.0155412683635728  0.2497974722130019  0.7783342793816072
  0.0866358465739294  0.2567771011014861  0.2786324800010785
  0.0798035605857893  0.2571230274317656  0.4029698656328516
  0.1413834763538173  0.2502737033963051  0.0115201062889290
  0.3174629761235577  0.2525370536206052  0.2762807708136947
  0.0556454482157939  0.2486988290057509  0.3968337383644077
  0.2662396427295001  0.2503449916240245  0.7141090092325589
  0.0483645804594003  0.2500405874389536  0.8995867703262247
  0.3030634991394694  0.2504896463224670  0.0941148216263066
  0.1300163269191020  0.2502531102127512  0.1973551321811809
  0.1505277312795292  0.2495922331099674  0.4564217182508250
  0.1825931872908683  0.2499503471594551  0.3943914050581687
  0.3168782448511233  0.2504918006121246  0.8958505373026882
  0.0358871337374543  0.2509667991122962  0.0909456482507255
  0.0372886420706241  0.2493376142902103  0.4808276363294228
  0.9948769118900198  0.6236203795221357  0.5272327473787161
  0.9953558346842786  0.3763790103488591  0.5289601871057792
  0.0167777895212961  0.6517298107643639  0.5007913669551901
  0.0169901796265884  0.3454373051429988  0.5002635115554492
  0.1180822516469649  0.3600282011392638  0.8452166710563430
  0.1180420156976497  0.1407178046424805  0.8453496551539602
  0.1110252587509767  0.1419281741002791  0.7321934864965420
  0.1111126304991907  0.3593919709292216  0.7314337483271570
  0.0339580809958414  0.6262765916307638  0.9226313140074628
  0.0339881494739768  0.3739376102065394  0.9223909163564734
  0.0988616819669794  0.3593251028147912  0.9160414449088242
  0.9458674990379650  0.3696574748747645  0.6193963596063402
  0.0159955332687033  0.3748357677399104  0.8571928984669192
  0.9460292646234967  0.6298842914025063  0.6175136806746657
  0.9717503647050836  0.6481385304754593  0.2129345614514388
  0.0045534219569298  0.3759392292789892  0.0290225394982976
  0.0047257364303014  0.6246106101856378  0.0278589025821783
  0.0360595831782652  0.6087945315747879  0.1941062703583500
  0.0362102240855285  0.3907470682171712  0.1947507255607666
  0.9732006519486833  0.3713670742440843  0.8182208650952659
  0.9733294157366095  0.6287400207984941  0.8188354147300116
  0.0043716185972847  0.3902121722421647  0.6958839672943934
  0.0045247953516198  0.6101186692590947  0.6959356761357958
  0.0216339347378837  0.5981547279907165  0.6076205840960410
  0.0211808950252303  0.3989546548523652  0.6074896806599260
  0.0350835402092206  0.6094360782168099  0.4264959950465940
  0.9716383054606798  0.3509533624769932  0.2103052418349538
  0.0355152732373612  0.3897330802341032  0.4263966144246149
  0.0159555779388761  0.6251454589173236  0.8577190171749917
  0.2337550341072350  0.1229078166908672  0.3134155767348369
  0.1836568404309048  0.0954373860025083  0.5002634226908347
  0.1834444461281964  0.4017299093227979  0.5007913274465752
  0.1620224946243609  0.1263790022356923  0.5289601338398028
  0.1615435542397542  0.3736203133659870  0.5272328070446031
  0.1826621876768154  0.1248357840067352  0.8571929047709269
  0.0089581836223817 -0.0001952097948411  0.1806849694923096
  0.0983689352069085  0.3658635333554601  0.1973930000784449
  0.0984660095065334  0.1344739639584238  0.1992702901144546
  0.2337017171898531  0.1323483927323050  0.6888371880679677
  0.2337091681204317  0.3675976725705173  0.6887676290944510
  0.1947083490176457  0.1080187616458365  0.3149016591396638
  0.1946266521549940  0.3919776116488490  0.3145598131949160
  0.2327427466541538  0.3790655243440789  0.3115953877848485
  0.1332965771780636  0.3750642603523968  0.4245716049979755
  0.2246737852665173  0.1185190128857372  0.8251283311499878
  0.2246630724903751  0.3817244169194335  0.8251134013050990
  0.1514255389602426  0.3986206988659169  0.6264052013055362
  0.1511065882241749  0.1012158613181106  0.6261294102309534
  0.2219321126576923  0.1148081889737161  0.5015666730150866
  0.2220508826152023  0.3835847769589434  0.4989023762210593
  0.1198730572584602  0.3791627770030178  0.1279587367283840
  0.1198431767533585  0.1213755517726348  0.1275266532635090
  0.1678052741885256  0.3757165986230578  0.4197733550649367
  0.1679859684168884  0.1245535078615425  0.4205913820724702
  0.2026685517311806  0.1540780811189724  0.8099655164481493
  0.2026185899313611  0.3467738278465244  0.8100367220492423
  0.1322785047570167  0.1247098142767368  0.4228598413483535
  0.0461828463614767  0.6206418250794823  0.6218452677310187
  0.0460572039970541  0.3790047680655943  0.6220133315738576
  0.9411259436050077  0.3591774314902313  0.3218960470894948
  0.0864154439507636  0.1238792065603601  0.3471983279752798
  0.0876553492683403  0.3595883690987071  0.7304209524661479
  0.0876299480867817  0.1407317024120334  0.7305649976877528
  0.0801588871776353  0.3599730591533702  0.8455055109185868
  0.0801558867332592  0.1403232578002309  0.8454687885139766
  0.9507073859592862  0.6486823177334160  0.5032513418910197
  0.0161154627540671  0.6383400030933011  0.1270724877898384
  0.0162254091883368  0.3616380276310662  0.1271879432985265
  0.9979730722803307  0.3762750278020416  0.9218508798752953
  0.9977647336275457  0.6237929660955674  0.9214027066016850
  0.9647446900234047  0.3780698554285764  0.6826018591010652
  0.9648339430863917  0.6213094997969939  0.6804042957705196
  0.9511054720990837  0.3487337451585077  0.5077834731333762
  0.0796311454639762  0.6094899024284405  0.1292728600164066
  0.9732160492915117  0.3754646080729366  0.5280303348211547
  0.9726207824137344  0.6233746527799662  0.5321884962489275
  0.9954078692768201  0.3676016436568551  0.1945339650817021
  0.2026185881272102  0.8467738680317084  0.8100367236075888
  0.0265229398399835  0.3753489452382358  0.0276182119408441
  0.0266740406367475  0.6250766568428582  0.0283123154942242
  0.9830322351270323  0.3452046205620627  0.0054157992859366
  0.9830821997230351  0.6548683060213952  0.0061484245280169
  0.9181086176934456  0.3800711428624122  0.6160273450861622
  0.2844539475725122  0.2465570269478207  0.4009330906903191
  0.0076549414916099  0.2496557428622247  0.2695237210220484
  0.1105037068679190  0.2497701771995572  0.2700897041486361
  0.0797077713081851  0.3928787780594966  0.1269830811556109
  0.0988295076615347  0.1410750824084128  0.9161319571989016
  0.0041751263455718  0.5988285392515432  0.3076608067385173
  0.0040811883906431  0.3995934618013083  0.3079384881810081
  0.9392708885108327  0.6396617206791378  0.3197475305448247
  0.9835538863362725  0.3737472202886033  0.3563846438902669
  0.9835724140161936  0.6268887079927143  0.3525615006974221
  0.9212124494456473  0.3794970053450692  0.0177019830239486
  0.9212622023151023  0.6209939133185778  0.0174919933077156
  0.0484626780427890  0.5982401472466045  0.0104917556489476
  0.0484096382219403  0.4014255134604289  0.0108954617082341
  0.0549790240409416  0.6427764076962221  0.1238411217205465
  0.0551963666181545  0.3581116913320940  0.1250964416377598
  0.0653847770601681  0.6224025658206821  0.9324997768501779
  0.0653750253136779  0.3779153360894702  0.9326634763820011
  0.0787351710366987  0.6079027989905654  0.5010667069694327
  0.0784532220429370  0.3907041605338759  0.5025956244927118
  0.9339340644495236  0.3944224829460036  0.4342997818146961
  0.9321532452050054  0.6081361364793607  0.4294159123385939
  0.9439646211065991  0.3675599536893616  0.0113135763684698
  0.9439671267758489  0.6329091535990333  0.0114147208146569
  0.9669524319607596  0.3816457906278347  0.9277003609289163
  0.9670262215562528  0.6185939815019993  0.9278716446287213
  0.9627845290460062  0.5978661946948894  0.3137037180864590
  0.9635343157687694  0.4036907219142322  0.3113347450346314
  0.9780626339502192  0.3978937561146549  0.1114610881941223
  0.9779455710928131  0.6034063258873559  0.1125864369185404
  0.9959671565930668  0.3522607867894298  0.8086664618015170
  0.9960416314395296  0.6476419400203577  0.8082562408757611
  0.0278145449921878  0.6482643288704849  0.7077089560749386
  0.0276871806301046  0.3529338803249176  0.7080827746623682
  0.3170058124093959  0.7503822934554379  0.4469697039207862
  0.2006247541398384  0.3762765891100230  0.9226313844524787
  0.1505277396121098  0.7495922264627951  0.4564217185582053
  0.3030634921100395  0.7504897244693453  0.0941147842441277
  0.0553842178825451  0.1335847730469717  0.4989023467490001
  0.9532064100692069  0.1291626531706872  0.1279587558665320
  0.9531765436912801  0.8713755407131375  0.1275265875865503
  0.0011385981869194  0.1257165237060528  0.4197732937973850
  0.0013193066288678  0.8745535466156747  0.4205913000075970
  0.0360018806200042  0.9040780688321701  0.8099655286194400
  0.0359519154550343  0.0967738097003901  0.8100367020365912
  0.0670883660376409  0.8729077839601244  0.3134155314723918
  0.0660760696752239  0.1290655958111424  0.3115953893983647
  0.1177048218233196  1.0003969910595616  0.7848549699816213
  0.0478808607081578  0.9998200697758927  0.2776102495880066
  0.9834415875551503 -0.0006732631202156  0.8961648811703889
  0.0552654409775378  0.8648081944555761  0.5015667137829096
  0.9952173624038289  0.0014772512085228  0.0898488320399073
  0.0468390359372196  0.0000224861668586  0.5437991279366804
  0.9514155674819498  0.1100282684234292  0.8452166831272395
  0.9513753314438770  0.8907176916509332  0.8453495949496204
  0.9443586054883307  0.8919282573775603  0.7321935238854972
  0.9444459783245012  0.1093919558388381  0.7314338250400837
  0.0680748445264739  0.0013233952064076  0.2090979781371456
  0.0691075210975022  0.0004205694973401  0.5863066990843573
  0.9321950259413235  0.1093249590475098  0.9160414681563326
  0.9321628288771951  0.8910751267513273  0.9161319208895690
  0.1389224300062343  0.9992807657591103  0.7382501969047002
  0.9197487924876842  0.8738792260490350  0.3471982602485938
  0.9209886991840909  0.1095884303723929  0.7304208722704049
  0.9512161367803725  0.0038095597865481  0.4009604647342671
  0.9209632862130384  0.8907317317735260  0.7305650327316500
  0.9844399354368339  0.8512159027319937  0.6261294390420791
  0.0579963986285186  0.1317244368332768  0.8251134573345421
  0.9732006445886140  0.8713671116143633  0.8182209483808308
  0.0362102327672028  0.8907471142027414  0.1947507497883296
  0.0360595812137595  0.1087945731792214  0.1941062368293148
  0.0047257329159049  0.1246105816564999  0.0278588805849859
  0.0045534232420447  0.8759392390901691  0.0290225996846856
  0.9717503457767180  0.1481386450585961  0.2129345780095984
  0.9716383019809081  0.8509534659016248  0.2103052580629846
  0.9460292860434865  0.1298842801634487  0.6175137519972131
  0.9458674832019200  0.8696574541220571  0.6193963172097861
  0.0339881547962713  0.8739376428087371  0.9223909451352665
  0.0339580816084308  0.1262765612674034  0.9226313705947707
  0.0169901831653403  0.8454372990619320  0.5002634663267990
  0.9847588885923597  0.1486207987830254  0.6264051872905202
  0.0167777867527113  0.1517299165905494  0.5007913436606062
  0.9948769038672811  0.1236202684807326  0.5272328525676935
  0.0159955096270046  0.8748357647702195  0.8571929104580965
  0.0159555756452216  0.1251454803648109  0.8577189299122665
  0.9317022861545137  0.1158634902526972  0.1973929826736543
  0.9317993683718311  0.8844740308015359  0.1992702721324574
  0.0670350333137107  0.8823483880925375  0.6888372369283108
  0.0670424970248443  0.1175976633961216  0.6887675977270262
  0.0280416757825517  0.8580187643360158  0.3149016391766767
  0.0279599888575562  0.1419775527670020  0.3145598058670475
  0.9666299287160298  0.1250642401268057  0.4245716033448264
  0.9656118551505213  0.8747097253798746  0.4228598869260311
  0.0580071204084737  0.8685190493576530  0.8251282938209421
  0.9953558097123055  0.8763790086921956  0.5289601932021152
  0.9733294108568040  0.1287401293924569  0.8188354386881461
  0.9134922305483832  0.1099730611543331  0.8455054437552812
  0.0030724807571219  0.0014102746046386  0.5975815324784799
  0.0804054465658435  0.7501546069918986  0.9472249568972292
  0.0990667138287298  0.7503765428503032  0.6519913204996350
  0.2423433615763297  0.7501914965238218  0.9919769707721069
  0.1292954483261700  0.7509778326987600  0.7627662798144744
  0.0166829180043586  0.7501020225425793  0.9507684319652183
  0.3168782542653241  0.7504917935830839  0.8958505261683042
  0.0358871317026632  0.7509667870854821  0.0909456558550382
  0.0372886417639749  0.7493375949534138  0.4808276189915106
  0.1105037131560038  0.7497701088205051  0.2700896700388957
  0.0076549334577482  0.7496558217225016  0.2695237488159475
  0.2844539695960733  0.7465570161661762  0.4009331372480485
  0.9034001931386556  0.0000689670723510  0.7667517134393003
  0.1105112287521021  0.7498244864922256  0.5295478157847200
  0.9893552297112777  0.9998970020734075  0.7788141381266416
  0.1177872852382525  0.9965571135067129  0.4009330639442525
  0.8409882843975455 -0.0003443079958122  0.2695237060989860
  0.9438370381425212  0.9997701140312824  0.2700896672822603
  0.8706219773211393  0.9993376495063113  0.4808276052357142
  0.8692204786000233  0.0009668149133627  0.0909457027989641
  0.1502115790790727  0.0004918040269412  0.8958505405166285
  0.8500162345223311  1.0001020353163708  0.9507683784457397
  0.9626287873616061  0.0009778196383002  0.7627662491439672
  0.0756766945327836  0.0001914212626332  0.9919769722836281
  0.9324000778717861  0.0003764380212957  0.6519913060798993
  0.9137387885835557  1.0001544883630067  0.9472249255289674
  0.9438445695815650 -0.0001756043643823  0.5295477885494215
  0.0969566174698422 -0.0004862026266677  0.5968731841325675
  0.0154877504553170  0.0002117997612605  0.7783608481473159
  0.1756248277528565  0.7498047806269097  0.1806850181198897
  0.2636232811655802  0.7495138279728576  0.5968731503758347
  0.8861450722289913  0.9999460979363783  0.6792306963150569
  0.0786283237216145  0.9926209194602449  0.4044314657837892
  0.9002249756389922  0.9989596117283580  0.2083400675948683
  0.8805300023054292  0.0003869901647778  0.2823157963193919
  0.9323920893748132  1.0003977055117916  0.8139475529745396
  0.8593186896852010 -0.0000436393104080  0.2080566154247108
  0.0975125683338025  0.0001877709806469  0.4815552946256751
  0.1241884646113642  0.9997835907597807  0.2806101731047659
  0.9315306701902103 -0.0001613377711855  0.0882239677783989
  0.0254218656309317  0.9990842514987102  0.5078176519288680
  0.1274843742148633  1.0001167886731399  0.9790866917358443
  0.0805474890225315  1.0000738225639505  0.7808443310451323
  0.1172222390245806  0.7503456060577089  0.9393215809473831
  0.9076706161771941  0.0001120328468415  0.0817219361276676
  0.9216537131318167  0.9996529371741919  0.5243446411574517
  0.0232651008925614 -0.0003165239400077  0.2672319295402344
  0.9134892324907656  0.8903233045664319  0.8454688378067715
  0.8899619421677805  0.0001609484799017  0.0140140700446689
  0.0882188922010937  0.9925315436028905  0.2798245358718751
  0.9827939126898287  0.9997841307834097  0.6704488096020566
  0.0623795413589204  0.0004816034290347  0.0855303097576476
  0.0876394042702903  1.0001751122623423  0.8917612729825000
  0.0367613579405311  1.0002892221521535  0.6989520549620142
  0.9015454487553075  0.9992276185398717  0.5898660693287919
  0.1613659585073045  0.9999335870771197  0.7088504542627587
  0.1103880397479861  0.0002124281387059  0.1892082983303814
  0.0545562313147827  0.0010350643084380  0.3987502356825354
  0.0043716163925100  0.8902121212501742  0.6958840245496229
  0.0045247959969662  0.1101186632690127  0.6959356902099927
  0.0216339388088959  0.0981546614254400  0.6076205812264854
  0.0162254116314923  0.8616380305032306  0.1271878875125338
  0.0161154678262379  0.1383400583396391  0.1270724822229873
  0.9507073556511841  0.1486821379521535  0.5032514745847182
  0.9511054416754547  0.8487337412263594  0.5077834970316318
  0.0041751145162103  0.0988284819444037  0.3076608580371819
  0.0040811882383520  0.8995934962671653  0.3079385336283054
  0.0276871812861180  0.8529339720414366  0.7080828241699078
  0.0278145399033378  0.1482642824755479  0.7077088595582790
  0.9960416363366364  0.1476418701116272  0.8082562416239478
  0.9959671672597263  0.8522607192737721  0.8086664395781296
  0.9779455602533748  0.1034065019361538  0.1125863897139870
  0.9780626540592823  0.8978936893849224  0.1114610869927489
  0.9979730793369106  0.8762750197266592  0.9218507938812897
  0.9635343227683293  0.9036907745540352  0.3113346695457656
  0.9670262370907566  0.1185940053344811  0.9278717123726803
  0.9669524269500029  0.8816458381901885  0.9277003000634317
  0.9439670951193018  0.1329090238395913  0.0114147279198637
  0.9439646485624801  0.8675600028900542  0.0113136371606810
  0.9321532259749228  0.1081360809701699  0.4294157913671017
  0.9339340646863971  0.8944224861543447  0.4342997983276350
  0.2237874447808889  0.7500990918587160  0.7651698702652843
  0.2638960512243765  0.7511221768896925  0.0876833971080404
  0.3297605192347728  0.7496159686555256  0.0938410366573076
  0.1506765742504239  0.7487699457756736  0.2784499863540004
  0.1305794513042112  0.7462216663734215  0.5928528707840053
  0.1209600699951161  0.7502788481706036  0.0611211822217548
  0.9627845105263430  0.0978660294422700  0.3137036989635448
  0.0418941689787571  0.7502655708247963  0.7800601110441352
  0.9977647406380589  0.1237929689056285  0.9214026720229794
  0.9648339325947987  0.1213094161332715  0.6804042437566749
  0.0483645825874002  0.7500406203518614  0.8995868024578343
  0.2662396471741910  0.7503449916932206  0.7141089861806006
  0.0556454516999747  0.7486988072177522  0.3968337625020026
  0.3174629678864281  0.7525370641647632  0.2762807088536645
  0.1413834736506883  0.7502736456248998  0.0115200785631932
  0.0798035641864210  0.7571230848837163  0.4029698690174695
  0.0866358437184704  0.7567771438146276  0.2786324724101035
  0.0155412691951716  0.7497975088616808  0.7783342357839487
  0.2973969738178421  0.7515483476312826  0.5931253734768822
  0.1825931978146736  0.7499503879124011  0.3943913686970356
  0.0297633726473709  0.7493575135831219  0.5959531205993325
  0.2149841501410096  0.7501857180432235  0.9000145524286632
  0.9647446903676195  0.8780697788574141  0.6826018106777227
  0.2014249705333800  0.7495758627590937  0.0946734781408221
  0.9180156306113053  0.1196545162303176  0.6157452052390979
  0.9181086375261874  0.8800710397809473  0.6160273424087219
  0.9830822074245398  0.1548681960166025  0.0061484963976918
  0.9830322199105849  0.8452046016978564  0.0054158344389344
  0.0266740416768658  0.1250766809475744  0.0283124036838272
  0.0265229349610916  0.8753490141393242  0.0276182220152377
  0.9953925197955314  0.1319693404597365  0.1951367309222178
  0.9954078854385838  0.8676015944904668  0.1945339678858379
  0.9726207681089939  0.1233746820075734  0.5321884046678759
  0.9732160525940969  0.8754646626598611  0.5280302587277096
  0.0797077707785806  0.8928787468376201  0.1269831012053299
  0.0796311449880154  0.1094899076165178  0.1292728627967611
  0.0158066052498271  0.7496335022945047  0.3935680745384603
  0.0040085583191943  0.7488749531034269  0.5895325784967118
  0.2771007023212490  0.7502830592325146  0.8961581604004500
  0.2843714954058925  0.7503969582138116  0.7848549695825937
  0.2034280373362615  0.7502892067439708  0.6989519560914401
  0.0682121049581655  0.7492275113765724  0.5898660374293453
  0.3280326317500835  0.7499336201694319  0.7088504188625754
  0.2770547123400351  0.7502124227714683  0.1892083172977628
  0.0700668520390760  0.7500689123825856  0.7667516358707911
  0.1560218819884884  0.7498970240538643  0.7788140709924147
  0.1104340316582746  1.0002830078414666  0.8961581341049627
  0.0784532188472487  0.8907041644332525  0.5025956348288840
  0.0787351710650519  0.1079028001422845  0.5010667342595633
  0.0653750262087624  0.8779152952271507  0.9326634624699518
  0.0653847689630992  0.1224025717738685  0.9324997625870631
  0.0551963659819279  0.8581117280045728  0.1250964522352135
  0.2543060809643615  0.7501751238811167  0.8917613002080002
  0.0549790203017253  0.1427763875582773  0.1238411256838513
  0.0484626880180975  0.0982400540811723  0.0104917816205046
  0.9212622638494687  0.1209938956341169  0.0174919207317679
  0.9212124246748579  0.8794969638070682  0.0177019613443751
  0.9835724606823602  0.1268888143832448  0.3525614839935688
  0.9835539021308132  0.8737472571648083  0.3563846154729035
  0.9392709007007316  0.1396617038575078  0.3197475465705036
  0.9411259102800126  0.8591774633231966  0.3218960568644377
  0.0460572039861543  0.8790047380913281  0.6220133420939479
  0.0461828376649303  0.1206418232540029  0.6218452896419463
  0.0355152732705207  0.8897330487769323  0.4263966192693202
  0.0350835463422828  0.1094361063824742  0.4264960094034557
  0.0211808961065741  0.8989546592812014  0.6074896530066336
  0.0484096456632865  0.9014256196845486  0.0108954864044465
  0.2290462035969292  0.7504816118743159  0.0855302959424156
  0.1494605796819580  0.7497842197798612  0.6704488643320996
  0.2548855606340065  0.7425315850254314  0.2798245171177982
  0.2145475288400517  0.7498200628896254  0.2776102392352418
  0.1501082683086580  0.7493267073051640  0.8961648598542736
  0.1618840488262450  0.7514772420297280  0.0898488285618317
  0.1178827764453687  0.7538095342719701  0.4009604854534187
  0.2135057062590655  0.7500224718016217  0.5437991061393773
  0.2347415174507203  0.7513234063634241  0.2090979989607926
  0.2357741913675218  0.7504206266058008  0.5863066335668023
  0.3055890989302296  0.7492807922707551  0.7382501646480483
  0.1821544192672443  0.7502117759061516  0.7783608228186728
  0.1697391476190770  0.7514102347304498  0.5975815042041611
  0.0528117269391235  0.7499460534889998  0.6792306542292786
  0.2452949915483438  0.7426208923971348  0.4044314241001937
  0.0668916556034019  0.7489597085037852  0.2083400411672745
  0.0471966722271884  0.7503869483105624  0.2823157806491545
  0.0990587461712436  0.7503976613749959  0.8139474989920400
  0.0259853475147534  0.7499563271918848  0.2080566450466223
  0.2641792353504895  0.7501877744144050  0.4815553007764909
  0.2908551357976379  0.7497836210433365  0.2806102016781210
  0.0981973403593911  0.7498386122391629  0.0882240170020248
  0.1920885285924942  0.7490841600077497  0.5078177220307045
  0.2941510363696833  0.7501167889061140  0.9790867346126901
  0.2472141613510742  0.7500738357379074  0.7808443558477497
  0.0743372870286474  0.7501120466134192  0.0817219126733079
  0.2212228953874614  0.7510350588805428  0.3987502372839157
  0.0883203710155321  0.7496528764592307  0.5243446222767363
  0.1899317653935810  0.7496834178745474  0.2672319316180546
  0.0566286070244573  0.7501611193241703  0.0140141210538148
  0.1300163249361210  0.7502531392088585  0.1973551562169279
  0.2006548287533803  0.1239376045950833  0.9223909613831961
  0.1826222365393703  0.3751454743741504  0.8577189150440404
  0.1126959377763882  0.3798842986218342  0.6175137767736038
  0.9512161148136079  0.5038095788021294  0.4009604625421316
  0.0468390370879099  0.5000224854977664  0.5437990950572759
  0.0680748531719856  0.5013233817550298  0.2090979760840367
  0.0691075201773759  0.5004205823508212  0.5863066924354935
  0.1389224242420174  0.4992808007884830  0.7382501657823896
  0.3885987915588817  0.3648082001298965  0.5015666670646010
  0.3887175461937812  0.6335848199649172  0.4989023607088299
  0.2865397248740725  0.6291627333091729  0.1279587415098939
  0.2865098458548042  0.3713755350147142  0.1275266536326013
  0.3344719431915161  0.6257166122005102  0.4197733915059717
  0.3346526398358431  0.3745534889893525  0.4205913724407847
  0.3693352100839925  0.4040781330390814  0.8099655480312254
  0.3692852512874640  0.5967738227241508  0.8100366605428709
  0.4004216976999794  0.3729077597086299  0.3134155502463034
  0.3994094151154155  0.6290655729048091  0.3115953429607005
  0.0154877538780249  0.5002117702095477  0.7783608054583773
  0.0030724803345805  0.5014102545083505  0.5975815324260426
  0.8861450560662913  0.4999459935994657  0.6792307030812093
  0.0786283228714578  0.4926209032229971  0.4044314710407579
  0.9002249983386958  0.4989597088870364  0.2083400617021353
  0.8805300006288270  0.5003869705492261  0.2823157715644086
  0.2847489156100866  0.6100281143570011  0.8452166599739764
  0.2847086709016326  0.3907177841304648  0.8453496355272900
  0.2776919318381436  0.3919282876159698  0.7321934768487964
  0.2777793003593990  0.6093919448672259  0.7314337174289395
  0.9323920963631046  0.5003976625805486  0.8139475349002543
  0.8593186638259673  0.4999564095475307  0.2080566366134415
  0.9952173809961822  0.5014772327684544  0.0898487625654356
  0.2655283515474275  0.6093250287683689  0.9160415079752253
  0.3177732584563028  0.3512158848745271  0.6261293805042309
  0.3913297451612207  0.6317245426601683  0.8251134481173926
  0.8488745984995478  0.4997974737777385  0.7783341956800564
  0.1307303036046574  0.5015483119940485  0.5931253741797227
  0.0159265222682345  0.4999503632609498  0.3943913419927016
  0.8630967332359644  0.4993576417872440  0.5959530519617178
  0.0483174818765496  0.5001857182619368  0.9000145664736423
  0.0347583069277098  0.4995759038986800  0.0946734810201246
  0.8491399264563315  0.4996334767789325  0.3935680574387105
  0.0571207792739142  0.5000990897967612  0.7651697877481914
  0.0972293824508763  0.5011221976012868  0.0876834302558537
  0.1630938538252781  0.4996159461627048  0.0938410194322829
  0.9840099209835392  0.4987699761409790  0.2784499685572158
  0.9639127678209913  0.4962216105829920  0.5928528843207684
  0.9542933983626642  0.5002788017059171  0.0611211745079006
  0.8752275108793652  0.5002655651356485  0.7800600209375740
  0.8373418985607343  0.4988749745740287  0.5895325685158249
  0.1104340368541877  0.5002830146829982  0.8961582060167604
  0.2651326789461255  0.3844740024101563  0.1992702852419199
  0.4003683903432942  0.3823484189068637  0.6888372495446079
  0.4003758209297574  0.6175976605127819  0.6887676227667073
  0.3613750140459067  0.3580188114755855  0.3149016427059572
  0.3612933228316156  0.6419775957003493  0.3145598045493455
  0.1177048214904606  0.5003970206733326  0.7848549573782517
  0.2999632382979677  0.6250641521737708  0.4245715349047604
  0.2989451787457330  0.3747097952350275  0.4228598109470631
  0.0478808603744077  0.4998200314084071  0.2776102348630909
  0.9834415894292396  0.4993266973528400  0.8961649057396103
  0.3913404555996756  0.3685190256734585  0.8251283392557798
  0.3180921994249121  0.6486206847145838  0.6264051839861218
  0.9199691790301103  0.5067771667256068  0.2786324076465014
  0.2654961749765029  0.3910750639645963  0.9161319903619273
  0.2530821089387838  0.3738792574448588  0.3471982896407028
  0.2657333921254975  0.5003765898756997  0.6519913385664488
  0.2470721131736695  0.5001545239109351  0.9472249778778615
  0.2771779015101854  0.4998243966165875  0.5295478094078545
  0.3422914838520413  0.4998048229764646  0.1806850556589536
  0.2838889083572395  0.5003456224326809  0.9393215584538982
  0.4302899552818260  0.4995137889738755  0.5968731864782392
  0.3226885555851643  0.4998970237193355  0.7788140753430874
  0.2367335210327910  0.5000689645338261  0.7667516761076962
  0.4437213670326577  0.5002124327896109  0.1892082815873243
  0.4946993065041147  0.4999335773069862  0.7088504358138992
  0.2348787802411454  0.4992274159447397  0.5898660329248686
  0.3700947098267706  0.5002891835065907  0.6989519828140544
  0.4209727567805920  0.5001751672907288  0.8917612237700553
  0.3957128678897892  0.5004815515290505  0.0855302644425947
  0.3161272458405967  0.4997841852833579  0.6704488239591557
  0.4215522341294447  0.4925316376448650  0.2798245383446498
  0.2232952809450236  0.5001610342935122  0.0140141253688283
  0.3565984454773281  0.4996835136196325  0.2672318883241469
  0.2549870328816782  0.4996528988095968  0.5243446940336304
  0.3878895704262256  0.5010350973170107  0.3987502288029991
  0.2410039463871675  0.5001120165527837  0.0817219537976309
  0.4138808249059166  0.5000738531210656  0.7808443533580985
  0.4608177067432363  0.5001168720185641  0.9790867380924914
  0.3587551959253025  0.4990841711652328  0.5078177198487719
  0.2648640099345546  0.4998386417382420  0.0882240065884097
  0.4575218110855686  0.4997836183742798  0.2806101655546949
  0.4308459116648849  0.5001877344729112  0.4815552726317257
  0.4090100214573020  0.5001914640667833  0.9919769395083898
  0.0975125711605430  0.5001877254401463  0.4815552770469146
  0.2959621226335720  0.5009778111519432  0.7627662434918369
  0.4835449154871312  0.5004918356235368  0.8958505365693366
  0.2543220175093581  0.6095883865582840  0.7304209252000704
  0.2542966138459196  0.3907317136603881  0.7305650143279317
  0.2468255554521866  0.6099730666304841  0.8455054404105348
  0.2468225674274214  0.3903233387210359  0.8454687606793475
  0.1241884742206516  0.4997835560223634  0.2806101475587224
  0.9315306735677854  0.4998386859142996  0.0882239679253728
  0.0254218549166120  0.4990842275039475  0.5078177004371018
  0.1931895920365190  0.6253489632331742  0.0276182025591498
  0.1933407069214045  0.8750766329167835  0.0283123938784143
  0.1274843818267118  0.5001168411678526  0.9790867332941344
  0.0805475003525795  0.5000738227826957  0.7808443184873732
  0.9076706166145967  0.5001120154005515  0.0817218797631669
  0.0545562357836675  0.5010350714416065  0.3987502422686637
  0.9216537072243297  0.4996530444592266  0.5243446588376298
  0.0232650930418535  0.4996834747726511  0.2672319277789404
  0.8899619485633480  0.5001608738559974  0.0140140733987719
  0.0882189007459690  0.4925315601295840  0.2798245764140924
  0.9827939145992749  0.4997842309768445  0.6704488193000664
  0.0623795334991638  0.5004816272217524  0.0855303157743449
  0.0876394114325694  0.5001750523392784  0.8917612496355112
  0.1496988644944308  0.5952047730408226  0.0054158872559592
  0.1497488753000329  0.9048683476312185  0.0061484607622685
  0.4511206256025299  0.4965570416387695  0.4009330578436477
  0.1743216157548376  0.4996556848306264  0.2695237586764943
  0.2771703701952158  0.4997701590331377  0.2700896783199216
  0.2039553129777421  0.4993376201635494  0.4808276482098764
  0.2025538032531215  0.5009668430052592  0.0909456533440089
  0.1833495884466256  0.5001020342493141  0.9507684952690092
  0.9131369196264023  0.5071230577318292  0.4029697511516013
  0.2650356113117689  0.6158635304846682  0.1973929870754852
  0.3492889239595743  0.6251454300712244  0.8577189428373155
  0.2463744387801402  0.6428787895820897  0.1269830948902190
  0.1398826892923607  0.6254646615676617  0.5280303391318553
  0.1392874361800080  0.8733746679661606  0.5321884402545389
  0.1620745364744378  0.6176015889624277  0.1945340236684823
  0.1620591773810941  0.8819693097781821  0.1951367711020879
  0.0148979450007377  0.5001452560074985  0.9532942650950917
  0.1503391379091447  0.5003822440137161  0.4469696734134242
  0.9838610671753713  0.4995921882889419  0.4564216600576240
  0.9633496684362055  0.5002531286458489  0.1973551336556785
  0.1363968278352429  0.5004896947839872  0.0941147987062808
  0.8816979271509791  0.5000406852627471  0.8995868431658435
  0.0995729813847400  0.5003449669402484  0.7141089317999129
  0.8889787779321715  0.4986987992911883  0.3968337504054095
  0.1507963096027614  0.5025371405065592  0.2762806811826334
  0.9747168253676251  0.5002737700298853  0.0115200542202710
  0.2513489473882782  0.6196545672942534  0.6157452075207154
  0.2514419565128319  0.3800710161543910  0.6160273591615295
  0.3164155441647115  0.6548684266992646  0.0061484184944298
  0.3163655274448251  0.3452047777232466  0.0054159115919276
  0.3600073858332202  0.6250765977819530  0.0283122827531079
  0.3598562822311628  0.3753490902559109  0.0276181849137843
  0.3287258446727256  0.6319693223968850  0.1951367644225679
  0.3287412121046777  0.3676015190754676  0.1945340253183432
  0.3059541184069483  0.6233746769516544  0.5321884971817115
  0.3065493600156141  0.3754646966179930  0.5280303244924975
  0.4130411013683638  0.3928787546297316  0.1269831156166319
  0.4129644861392576  0.6094899406348517  0.1292728330025757
  0.2462978078193684  0.8594899152810507  0.1292728285755267
  0.2981672251193272  0.6213094331523304  0.6804042960024352
  0.1315005673920087  0.8713094370059600  0.6804042864187502
  0.1644314058026851  0.8737929488479099  0.9214026228105094
  0.2216456899213948  0.8927764289701439  0.1238411465259836
  0.2218630402223725  0.6081117178316107  0.1250964336038544
  0.2320514483945018  0.8724025468115926  0.9324997887623012
  0.2320416964861418  0.6279153009891694  0.9326634692024971
  0.2454018424152317  0.8579028309064521  0.5010666682108632
  0.2451198848879938  0.6407041542942680  0.5025956396204186
  0.1006007150831125  0.6444225164486537  0.4342997628039239
  0.0988198978470178  0.8581360913291159  0.4294158798375234
  0.1106312901335340  0.6175599975589784  0.0113135703417691
  0.1106337679975558  0.8829090918911165  0.0114146981685311
  0.1336190748935841  0.6316458047624214  0.9277002866296176
  0.1336928981384100  0.8685939662329483  0.9278716502804075
  0.1294511883543339  0.8478661232786301  0.3137036983713014
  0.1302009880210725  0.6536907291995960  0.3113347240124164
  0.1447293133977842  0.6478937470281259  0.1114610746113038
  0.1446122295898430  0.8534063261369652  0.1125863815713231
  0.1626338405709240  0.6022606953853991  0.8086665222632202
  0.1627083062015648  0.8976419504940626  0.8082562436899153
  0.1944812070761011  0.8982643236727206  0.7077089767411160
  0.1943538322712163  0.6029339664169971  0.7080827692591497
  0.1707478537539573  0.6495933946541915  0.3079385000026091
  0.1708417844751285  0.8488284454272116  0.3076607882862049
  0.1177721289100537  0.5987337720706166  0.5077834934845750
  0.1173740165601035  0.8986821634162095  0.5032514799305954
  0.1827821351624493  0.8883399541514604  0.1270724718213831
  0.1828920714658913  0.6116380933417809  0.1271879531582271
  0.1646397410260053  0.6262750333527136  0.9218507354080695
  0.1314113596185963  0.6280698960170094  0.6826017990865312
  0.2980780249566526  0.3780698604531909  0.6826017833201391
  0.3310980587798514  0.6237930267858172  0.9214027550774798
  0.3313064122493274  0.3762749859554650  0.9218506877795564
  0.2726042177711806  0.6396616716901040  0.3197474663096429
  0.2744592359247062  0.3591773820229833  0.3218961208680722
  0.3793905488339360  0.3790047865743399  0.6220133348041053
  0.3795161700399522  0.6206418733590706  0.6218452609794205
  0.3688486014194206  0.3897330519642146  0.4263965987782856
  0.3684168719442125  0.6094361429223034  0.4264959348809669
  0.3545142490547417  0.3989547081505887  0.6074896399185603
  0.3549672725416083  0.5981547591982177  0.6076205590296259
  0.3378581252936168  0.6101186418604797  0.6959357261561548
  0.3377049685362214  0.3902121922567660  0.6958840196470336
  0.3066627065346140  0.6287400593272325  0.8188355017362786
  0.3065339773141177  0.3713670627001451  0.8182208859090078
  0.3695435681375395  0.3907470246668753  0.1947507370270527
  0.3693929076902441  0.6087945771296230  0.1941062949732857
  0.3380590678170071  0.6246106001796834  0.0278589416762304
  0.3378867621929345  0.3759391893249887  0.0290226062651565
  0.3050836625556077  0.6481386446798745  0.2129346264136276
  0.3049716315583881  0.3509534319785148  0.2103052747787182
  0.2793626107308107  0.6298843240967362  0.6175137605071725
  0.2792008202805368  0.3696574501800003  0.6193963276542122
  0.3673214984688945  0.3739376804932128  0.9223909986705443
  0.3672914191837485  0.6262765776130762  0.9226313323621027
  0.3503235134763164  0.3454373686540273  0.5002634975101459
  0.3501111126662794  0.6517298366162256  0.5007913469644159
  0.3286891599812887  0.3763790429073597  0.5289601182030490
  0.3282102328243691  0.6236203903866970  0.5272327962640514
  0.3493288537680932  0.3748357974433880  0.8571928759122298
  0.3168872043877479  0.3737473025205518  0.3563846719845056
  0.3169057582339198  0.6268886867238284  0.3525614565785024
  0.2545457670853695  0.3794969529890178  0.0177020137801505
  0.2545955696443103  0.6209938918491679  0.0174919101722201
  0.3495587355869292  0.3616381475470786  0.1271879041327990
  0.3494487977568038  0.6383398586702751  0.1270724785553947
  0.2840406868398226  0.6486820822424275  0.5032514464129677
  0.2844387956447546  0.3487336686929990  0.5077835365652467
  0.3375084507380186  0.5988284660529076  0.3076607531624933
  0.3374145338283376  0.3995935122129722  0.3079384581857998
  0.3610205242292457  0.3529339429536232  0.7080828194875294
  0.3611478738145543  0.6482642650736651  0.7077089249207705
  0.3293749706712945  0.6476418885314821  0.8082561935869935
  0.3293004865550667  0.3522606979655930  0.8086664846742594
  0.3112788963454300  0.6034063293548272  0.1125864358585845
  0.3113959746919719  0.3978936003578954  0.1114610626003347
  0.2968676564662655  0.4036907116824486  0.3113347427762829
  0.1926520053526419  0.4999563484063824  0.2080566040586375
  0.2961178562685032  0.5978660334441904  0.3137037091442675
  0.3002857537048932  0.3816458138650424  0.9277003408585753
  0.2773004276196674  0.6329090662716592  0.0114146590707217
  0.2772979569365455  0.3675600401007036  0.0113136007324494
  0.2654865673165238  0.6081361349003763  0.4294158808727681
  0.2672673772913854  0.3944224769724192  0.4342998044784700
  0.4117865598531294  0.3907041196753596  0.5025956218924518
  0.4120685117364723  0.6079027768329653  0.5010667165622796
  0.3987083573360075  0.3779152983016149  0.9326635172524259
  0.3987181104008742  0.6224025986314954  0.9324997721093398
  0.3885297080449694  0.3581117130811121  0.1250964543010505
  0.3883123583180828  0.6427764233684684  0.1238411313004274
  0.3817429624300678  0.4014256332030647  0.0108954804629392
  0.3817960194782396  0.5982400212335459  0.0104917902636777
  0.3003595745393925  0.6185939874169937  0.9278717130972320
  0.1125341435139813  0.1196574303385121  0.6193962935841421
  0.2657254206614423  0.5003976325128302  0.8139475108644775
  0.2335583299898133  0.4989596150436874  0.2083400307658649
  0.1836568473280157  0.5954373532667578  0.5002634442534046
  0.1834444394210668  0.9017298546262522  0.5007913300654886
  0.1620224909135705  0.6263790221712918  0.5289601332755094
  0.1615435589833466  0.8736203345590889  0.5272328257435671
  0.1826621946318095  0.6248357752386481  0.8571928937308996
  0.1826222394267349  0.8751454970876501  0.8577189718683041
  0.0983689312744905  0.8658635437936884  0.1973929690668639
  0.0984660099332277  0.6344739567442205  0.1992702876633410
  0.2337017120527044  0.6323483942118799  0.6888372381151306
  0.2337091754658597  0.8675977257048698  0.6887675953815011
  0.1947083380458623  0.6080187460331098  0.3149016468454160
  0.1946266533938037  0.8919775836078782  0.3145598373641578
  0.1332965714308585  0.8750642074277242  0.4245716236818751
  0.1322784986880522  0.6247098262276730  0.4228598499978884
  0.2246737918374858  0.6185190308417990  0.8251283506707270
  0.2246630773819562  0.8817244533298335  0.8251134130273705
  0.1497488698602731  0.4048683451409236  0.0061484256040952
  0.1496988650462376  0.0952047236504207  0.0054159285893157
  0.1933407168211473  0.3750766186183231  0.0283123407991248
  0.1931895892845868  0.1253489677299458  0.0276182276889511
  0.1620591813016389  0.3819693061591055  0.1951367447246688
  0.1514255395451991  0.8986206996617255  0.6264051597547972
  0.1620745393428636  0.1176015899065359  0.1945340340924472
  0.1392874475701793  0.3733746786860980  0.5321884704890590
  0.1511065822878163  0.6012158500508579  0.6261293813295425
  0.2219321177192107  0.6148082112197734  0.5015666843966975
  0.1398826913855313  0.1254646759757200  0.5280303453618632
  0.2006247547931968  0.8762765989967609  0.9226313620127763
  0.2463744398325309  0.1428787852854950  0.1269830918962997
  0.2006548238661820  0.6239376030482799  0.9223908995268925
  0.0846822822989498  0.3696545048588124  0.6157452134058575
  0.0011386147913983  0.6257166231555342  0.4197734326947996
  0.9531765221521428  0.3713754998250967  0.1275266119828558
  0.9532063998889643  0.6291627930639364  0.1279587545086169
  0.0553842125862006  0.6335847646039090  0.4989023402862969
  0.0552654420383309  0.3648081502210523  0.5015666980334270
  0.9844399274251996  0.3512158474577335  0.6261293455374540
  0.9847588818370091  0.6486207041183450  0.6264051641785436
  0.0579963952067340  0.6317244573722836  0.8251134186953700
  0.0580071171750497  0.3685190372438825  0.8251283348112349
  0.9656118568024309  0.3747097906177512  0.4228598318742045
  0.9666299233242353  0.6250642982610181  0.4245716401909255
  0.0279599840069895  0.6419775598480730  0.3145598218553914
  0.0280416667242153  0.3580187986166906  0.3149016704793715
  0.0670424971047575  0.6175977177874625  0.6887676087294901
  0.0670350423138041  0.3823484476426663  0.6888372549716940
  0.9317993779823656  0.3844739373883816  0.1992702666319584
  0.9317022689090793  0.6158635814739021  0.1973929643518532
  0.1399960554216222  0.8787400573044148  0.8188354813042134
  0.1398672981014915  0.6213670703507308  0.8182209244525332
  0.2028768889183279  0.6407470756499503  0.1947507537008661
  0.2027262494632341  0.8587946167284127  0.1941062640027455
  0.1713924070380561  0.8746105973309211  0.0278588962905543
  0.1712200931640745  0.6259391680637196  0.0290225920225511
  0.1384169940114672  0.8981386330706433  0.2129345703212632
  0.1383049546639591  0.6009533700360525  0.2103052235878720
  0.1126959447180085  0.8798843162371600  0.6175137337180123
  0.1125341430043531  0.6196574231223884  0.6193962763945701
  0.0847752877840810  0.1300710704300102  0.6160273975519175
  0.0013193175435598  0.3745534968484713  0.4205913646106509
  0.2462978162065393  0.3594898895239211  0.1292728434920523
  0.2220508835766998  0.8835847647650624  0.4989023317419491
  0.2320514412011261  0.3724025748904606  0.9324998029965927
  0.2218630364640292  0.1081116433203604  0.1250964688893769
  0.2216456903097997  0.3927763914803518  0.1238411295962523
  0.2150763139200141  0.1514255554597312  0.0108954858067242
  0.2151293503749852  0.3482400426304362  0.0104917498695191
  0.0879288939392480  0.3709938604812629  0.0174919441793838
  0.0878790889498221  0.1294970120990510  0.0177020202300885
  0.1502390910483276  0.3768886804310346  0.3525614626555206
  0.1502205592979940  0.1237473128505795  0.3563846720184519
  0.1059375632202757  0.3896616805271869  0.3197474876729789
  0.1077925667906784  0.1091774246189500  0.3218961134835943
  0.2127238723736897  0.1290047724701810  0.6220133258847598
  0.2128495090912000  0.3706418646402993  0.6218452525579909
  0.2021819418520274  0.1397330879706491  0.4263966120824380
  0.2017502089243924  0.3594361287490630  0.4264960054301982
  0.1878475752778994  0.1489547603180220  0.6074896445107482
  0.1883006046540846  0.3481547571403691  0.6076206132200663
  0.1711914580065376  0.3601186167475726  0.6959357316016700
  0.1710382899447282  0.1402121395548686  0.6958840060750133
  0.1399960539427070  0.3787401097797123  0.8188354922293726
  0.1398673024490077  0.1213671164910143  0.8182209147693921
  0.2028768912776998  0.1407470454136089  0.1947507513326532
  0.2027262543448467  0.3587945286602935  0.1941062635326979
  0.1713924080728224  0.3746105992618040  0.0278589161795391
  0.1712200984746947  0.1259391915517438  0.0290225958028223
  0.1384170041295761  0.3981385521959124  0.2129346052038458
  0.1383049507736107  0.1009533628721327  0.2103052529178309
  0.2320417015648211  0.1279153201463451  0.9326634892568308
  0.1315005753743230  0.3713094108020643  0.6804042288536312
  0.2454018408913037  0.3579028377986916  0.5010667248362157
  0.1006007144347295  0.1444225106709651  0.4342997984691940
  0.1198730580816136  0.8791627521319872  0.1279587137703872
  0.1198431761744683  0.6213754987322748  0.1275266647314485
  0.1678052769772763  0.8757165898997942  0.4197733250019329
  0.1679859740557279  0.6245535237347236  0.4205913640175600
  0.2026685486512982  0.6540781268011530  0.8099655619986810
  0.1314113640052450  0.1280698534630889  0.6826018315071405
  0.1644314076207879  0.3737929408569210  0.9214026454154481
  0.1646397426521200  0.1262749913668364  0.9218507004571017
  0.1828920715050557  0.1116381027352913  0.1271878890934153
  0.1827821268276117  0.3883399514576978  0.1270725088916023
  0.1173740158138587  0.3986821556862800  0.5032514433818692
  0.1177721199724790  0.0987336828045547  0.5077835322523765
  0.1708417815113452  0.3488284706727955  0.3076607842983169
  0.1707478540518358  0.1495934505020407  0.3079385129797637
  0.1943538520989493  0.1029339274572199  0.7080827767058997
  0.1944812010534469  0.3982642317204379  0.7077089361290009
  0.1627083043427800  0.3976419495106098  0.8082562387289955
  0.1626338343260106  0.1022607132295808  0.8086664983335279
  0.1446122275569771  0.3534063439171446  0.1125863978282853
  0.1447293197311816  0.1478936339661559  0.1114610986815825
  0.1302009823921547  0.1536907502947751  0.3113347382355282
  0.1294511793457566  0.3478660596560946  0.3137037010920181
  0.1336928889839224  0.3685939576509350  0.9278716638923624
  0.1336190782219449  0.1316458540725425  0.9277002697603863
  0.1106337700950990  0.3829090999598129  0.0114146729748085
  0.1106312922259139  0.1175600638620764  0.0113135691060374
  0.0988198964477141  0.3581360874353591  0.4294158571307835
  0.2451198921210467  0.1407041397955718  0.5025956794647212
  0.0360018716532018  0.4040780830533351  0.8099655495529322
  0.0359519174124604  0.5967738341424448  0.8100366851855330
  0.0670883733004179  0.3729077644717335  0.3134155663016750
  0.0756766935936093  0.5001914960010879  0.9919769308476700
  0.9626288092807714  0.5009777923635788  0.7627662898489668
  0.8500162402840931  0.5001020276722126  0.9507684650528189
  0.1502115773229858  0.5004918232910478  0.8958505244000399
  0.8692204810150581  0.5009668720520993  0.0909456962366627
  0.8706219737679108  0.4993377361644445  0.4808276273333260
  0.9438370574377740  0.4997701600929177  0.2700896689716864
  0.8409882919119100  0.4996556901240807  0.2695237623210248
  0.1177872846310807  0.4965570984997810  0.4009330602132569
  0.9324000343283088  0.5003765546948175  0.6519912952927172
  0.2150763114246674  0.6514255226463360  0.0108955112886705
  0.2138633314426377  0.5003869755964495  0.2823157752484041
  0.0878790906744425  0.6294969974392971  0.0177019878471678
  0.1502390954536767  0.8768886772055577  0.3525614639123416
  0.1502205584841791  0.6237472736124665  0.3563846966807814
  0.1059375556507302  0.8896616657060643  0.3197475342571967
  0.1077925632358780  0.6091774003914154  0.3218961187410339
  0.2127238773731765  0.6290048174758920  0.6220133340074212
  0.2128495171283686  0.8706418312496544  0.6218452502716224
  0.2021819349603386  0.6397331081887605  0.4263966035936730
  0.2151293653443480  0.8482401355599729  0.0104917926049715
  0.3167749314176393  0.4993267007436658  0.8961648736649173
  0.9137388012825438  0.5001545140242842  0.9472250593369861
  0.0089581737282558  0.4998047948444496  0.1806850259309088
  0.4119616557873255  0.4926208922373018  0.4044314832252740
  0.2194784020649086  0.4999460681393140  0.6792306797426332
  0.3364058182562837  0.5014102361613927  0.5975815179270567
  0.3488210814721178  0.5002117824087227  0.7783608679642023
  0.4722557787477509  0.4992807671136077  0.7382502033790662
  0.4024408676825205  0.5004205528364886  0.5863067014869288
  0.4014081897120213  0.5013233783889415  0.2090979589212931
  0.3801723637309228  0.5000224855616970  0.5437991295945578
  0.2845494482504079  0.5038095623955714  0.4009604439264014
  0.9438445625163127  0.4998244092135513  0.5295478092343329
  0.3285507177477053  0.5014771924058611  0.0898488532382298
  0.0846822800838870  0.8696544608462954  0.6157452265253215
  0.0367613650653436  0.5002891843020888  0.6989519956748690
  0.9015454490147842  0.4992275441286878  0.5898660613174724
  0.1613659573618550  0.4999336017302481  0.7088504616635235
  0.1103880371870730  0.5002124653816830  0.1892083238447534
  0.9034001828728824  0.5000689909043144  0.7667517154841815
  0.9893552238009142  0.4998969457534593  0.7788140773308840
  0.0969566160763421  0.4995137853847608  0.5968731666955329
  0.9505555877110636  0.5003456506266436  0.9393214615551689
  0.0847752756991683  0.6300710744040195  0.6160273857224932
  0.3812141878234562  0.4998200207944066  0.2776102671610661
  0.0879289024658905  0.8709938905874480  0.0174919315744719
  0.4437673544756669  0.5002830156449087  0.8961581810748191
  0.4329063126591719  0.5003450101343770  0.7141089510776941
  0.2150312561754461  0.5000405491751929  0.8995868068295337
  0.4510381508835685  0.5003969379546502  0.7848549913791748
  0.4697301478642393  0.5004896180590565  0.0941147798777330
  0.2966829893698550  0.5002531604327906  0.1973551245441059
  0.3171943892791914  0.4995922060661708  0.4564217146104380
  0.4836724833966571  0.5003822532517321  0.4469696897070441
  0.3482312901743162  0.5001453485331421  0.9532941964162168
  0.2017502105092744  0.8594360585776920  0.4264959989252957
  0.1878475763473802  0.6489546439764506  0.6074897222744300
  0.1883006020156447  0.8481548238032290  0.6076205465660542
  0.9134892345380420  0.3903233703582522  0.8454687549456436
  0.9134922303863329  0.6099732130048563  0.8455054561565548
  0.9209632846726544  0.3907317684675379  0.7305650065672294
  0.9209886828347804  0.6095884248530858  0.7304208822405682
  0.9197487644967387  0.3738791955405532  0.3471983055243413
  0.9321628358638026  0.3910750688209746  0.9161319455256501
  0.9321950238216633  0.6093251385345115  0.9160415132371580
  0.9444459602142463  0.6093918341542062  0.7314337287104028
  0.9443586099085571  0.3919282691679518  0.7321933741406503
  0.9513753755702479  0.3907177198145379  0.8453495931874071
  0.9514155843485316  0.6100281713242666  0.8452166826507020
  0.1711914601384482  0.8601186682658113  0.6959357153838267
  0.1710382863588948  0.6402121453650468  0.6958840265834766
  0.0660760709414596  0.6290654415083751  0.3115954282888071
  0.2223121196026333  0.4986987884393901  0.3968337630838721
  0.4841296504812299  0.5025371198617218  0.2762806691540450
  0.9505555812466551  1.0003455760442401  0.9393215630905035
  0.1964300426385996  0.4993575449918451  0.5959531114382433
  0.1824732687605584  0.4996335256743658  0.3935680852627666
  0.3680916391667599  0.4995759133081527  0.0946734759862514
  0.3816508242028727  0.5001857074099618  0.9000145338871314
  0.2972461193584590  0.4962216781996329  0.5928528186891995
  0.2876267473925737  0.5002788856429411  0.0611211726285485
  0.4305627243207351  0.5011221064099733  0.0876834237279733
  0.3492598690764834  0.4999503731174941  0.3943913944527285
  0.4640636419813280  0.5015483277791463  0.5931253768320082
  0.3173432307961753  0.4987699392379252  0.2784499931998601
  0.1822079358191461  0.4997974777895269  0.7783342887766823
  0.2085608353301575  0.5002655509785343  0.7800600841904455
  0.1706752208265842  0.4988749639977793  0.5895326058832950
  0.3904541070533942  0.5000990980072657  0.7651698158452293
  0.2464702351045225  0.5071230225054338  0.4029698545544666
  0.3080501527557042  0.5002737445630137  0.0115200595017939
  0.2533025057178593  0.5067771468108665  0.2786324409980305
  0.4964271794213631  0.4996159295157034  0.0938410311172223
  0.7853020670123020  0.6265637085698400  0.2317267327956092
  0.7851078408957194  0.8735610846718982  0.2321216084928636
  0.8172003468896356  0.6248645662648820  0.7275630845082527
  0.2145577175582815  0.8740984132814890  0.7308033111958300
  0.2658104784362134  0.8474592899393010  0.8138029721639947
  0.0991418760583814  0.9030346292598259  0.8137666584659664
  0.9324771619938858  0.8474593442188553  0.8138030470972893
  0.7658085689129475  0.9030346157176254  0.8137666412298478
  0.8171634781636965  0.8746572580466664  0.7275469555507950
  0.8685857304155270  0.8751847146933324  0.5330725648334371
  0.1186354233290374  0.6265636569477542  0.2317267685691790
  0.9008932329967535  0.8765415359066019  0.0378376228826578
  0.2342265589868096  0.8765414487698669  0.0378376182077601
  0.2019104041188455  0.6236976161029101  0.5333467058376533
  0.2019190474553519  0.8751846481015726  0.5330726645235759
  0.1504968244446458  0.8746571570649018  0.7275469736984149
  0.1505336628381495  0.6248646065984539  0.7275631326041516
  0.2145346191059428  0.6261326276064086  0.7306447932836402
  0.1309515688170850  0.8764195771595826  0.0343979050708473
  0.1309539809890845  0.6240849332680963  0.0342028664239983
  0.7976206394041814  0.6240848182052350  0.0342028966310644
  0.7976182432771302  0.8764195303641832  0.0343979194357114
  0.8812012907032132  0.6261326907458098  0.7306447902650530
  0.8812243849705074  0.8740984829853607  0.7308033813137358
  0.2342447720402728  0.6239715032017376  0.0380753206331294
  0.0987339305711395  0.8740438456708632  0.5378601263247537
  0.9009114634631227  0.6239715152195627  0.0380753382995424
  0.8685770700046497  0.6236976167685251  0.5333466257016630
  0.1184411593657670  0.8735610744912338  0.2321216624392119
  0.6184411592930412  0.6235611044561842  0.2321216635380442
  0.1827295563795273  0.8751504452224149  0.2287939798763000
  0.9960674846462235  0.2503953168741306  0.3603485215926061
  0.9324752032077459  0.6530347193351539  0.8137666943311153
  0.0991438018829897  0.5974592835554784  0.8138030672188464
  0.9642872973790639  0.3740849155611339  0.0342029298283679
  0.9642849042416780  0.6264195832307790  0.0343979420354725
  0.0478679491193327  0.3761326549155532  0.7306447645655912
  0.0478910473747706  0.6240983746600602  0.7308033381009940
  0.0675781028730575  0.3739715010206803  0.0380753218412320
  0.0675598871223127  0.6265414530196797  0.0378376548384413
  0.0352437429542308  0.3736976020692383  0.5333466762477483
  0.0352523748584473  0.6251846423929704  0.5330726310641041
  0.9838301456100321  0.6246571603838541  0.7275469230185440
  0.9838669923053428  0.3748645668241398  0.7275631793361546
  0.9517744914126940  0.6235610937918632  0.2321216091052794
  0.9519687283474074  0.3765637143514733  0.2317267116678633
  0.9320672702600069  0.6240437786255444  0.5378601774956597
  0.9321911556011204  0.3756477070145869  0.5389777345892539
  0.0160628866060494  0.6251504018811181  0.2287939717142806
  0.0160659937333890  0.3744493318308275  0.2288379854092407
  0.8493993331878766  0.1244493348069690  0.2288379657667444
  0.8493962218118394  0.3751504616135807  0.2287940273638001
  0.8985841394049071  0.2502717363135063  0.4882951549388272
  0.6693565749354247  0.2496497751785380  0.4796119823508223
  0.9840355289736221  0.2498310678179523  0.5526161716427888
  0.9009352351483325  0.2501221195030036  0.8633600792015746
  0.9710739505229362  0.2499149006017432  0.3629810433395776
  0.8605811045178506  0.2501491648522781  0.8710847423068179
  0.9139661156043746  0.2499554385270805  0.6748015354208390
  0.7853938593694961  0.2500024111127533  0.6743495408132820
  0.9223249962948926  0.2510604845901620  0.1779440031023515
  0.7663143210875881  0.2502304377206436  0.9871156092461231
  0.7661124859421182  0.2459147908658665  0.3606525499011237
  0.9636532625563267  0.2500766884504458  0.8687954760865075
  0.7454841349865178  0.2500103730893070  0.6756409429782708
  0.9314082573034799  0.2502767191117405  0.9814460029493491
  0.7655244991047525  0.1256477148103381  0.5389777952444788
  0.8678974512146787  0.2500599142213974  0.9841640540875048
  0.9971237430250836  0.2501181617404037  0.9816092089021838
  0.7030956840402546  0.2502952673057585  0.9851104155598202
  0.6826984165094407  0.2501362297667440  0.0548673918610506
  0.6953959276707018  0.2499474964092725  0.8637531686090857
  0.8362700895359898  0.2499002712142806  0.8625281214366745
  0.9834950398314362  0.2493673592039363  0.1705297700878457
  0.8053958054704714  0.2505717047490947  0.3727160359363773
  0.9318256403739937  0.2539487566026916  0.3754822247998029
  0.8482966936723324  0.2501685863778054  0.0611731807218338
  0.6709789100988311  0.2499943897073217  0.8681981011730889
  0.6815592961781440  0.2502377102756910  0.6736217549497640
  0.7654005811477669  0.3740438349166539  0.5378601099473689
  0.7853020669318359  0.1265636494181590  0.2317267631675892
  0.7851078463457064  0.3735611481707196  0.2321216019398217
  0.1637904246268805  0.5001180081752661  0.9816092420842949
  0.8482259150700633  0.5002377685931261  0.6736217497729027
  0.0345640881496343  0.5000599773937159  0.9841640467435421
  0.0980749243865626  0.5002766915774663  0.9814459483389316
  0.9121508109814487  0.5000102632819514  0.6756409695309580
  0.1303199042995886  0.5000766292483954  0.8687954661264108
  0.9327791641615836  0.4959148129267265  0.3606525505094055
  0.9329810057948005  0.5002304103793547  0.9871157061691280
  0.0889916751971010  0.5010606255032480  0.1779439573023804
  0.9520605461600820  0.5000023636928185  0.6743494868017867
  0.8697623924027789  0.5002953280494866  0.9851104506587520
  0.0806327495057023  0.4999553996292276  0.6748015326083610
  0.1377406100818131  0.4999149353918315  0.3629810681698378
  0.9644524052782792  0.5002081632220335  0.8643857799450935
  0.9954415447887045  0.4999242509806665  0.3693183353644413
  0.9634517917902625  0.4996797981604181  0.4884049545829148
  0.9951811097997876  0.5002056084812582  0.9840101289825280
  0.9840394327916510  0.4995661441963687  0.5623647650419485
  0.1314453270807585  0.4990613381526912  0.4834517871658036
  0.9007734862615810  0.5001668663084449  0.8688726613767166
  0.0170116388880456  0.4996064268633153  0.6774731086619431
  0.9841965840270009  0.4999633062566977  0.1777216278087823
  0.0272477469006714  0.5001491378596723  0.8710847936336030
  0.7977857826448915  0.2502080940156522  0.8643858111064406
  0.8493650673972494  0.5001362532232078  0.0548673701983192
  0.0029367584323855  0.4999002963318309  0.8625281109715794
  0.8172003368806936  0.1248646058013339  0.7275631556626850
  0.8171634793128751  0.3746572248953935  0.7275469435176133
  0.8685857139840548  0.3751847137082674  0.5330725876272352
  0.8685770843486708  0.1236975780199084  0.5333467093296966
  0.9008932177506114  0.3765414831476235  0.0378376766370392
  0.9009114190660029  0.1239715318101623  0.0380752970950993
  0.8812243999012117  0.3740983708372229  0.7308032834590356
  0.8812012877738641  0.1261325408738083  0.7306447501031060
  0.7976182509088376  0.3764195612326007  0.0343978869761268
  0.7976206645712947  0.1240849912370853  0.0342028965670054
  0.8620626037691890  0.4999475553921892  0.8637531254067777
  0.9324771444825246  0.3474592444971859  0.8138031190159133
  0.1627341476127602  0.5003953853809527  0.3603485771547425
  0.0652507956767672  0.5002716998222886  0.4882951081963395
  0.8360232427770808  0.4996497979729753  0.4796119573638402
  0.1507021899322815  0.4998310790622426  0.5526161226568982
  0.0676018884421947  0.5001221331091522  0.8633600791869469
  0.8376455747183941  0.4999944052976940  0.8681981402891448
  0.0149633406665262  0.5001685984722806  0.0611731953633343
  0.0984923141828719  0.5039489508652758  0.3754822185888337
  0.9720624886885380  0.5005716422682395  0.3727161364377699
  0.1501617092996385  0.4993673954835021  0.1705297704543450
  0.7658085461225586  0.4030346197006073  0.8137666676987841
  0.8287748692866287  0.2499241784711278  0.3693182915067268
  0.7967850983921275  0.2496798647958603  0.4884049527567557
  0.8285144143780865  0.2502056038215515  0.9840101368647418
  0.5287292618030643  0.9999475631046630  0.8637531862404050
  0.6696034363056373 -0.0000997312811525  0.8625281590336757
  0.8168283555706239  0.9993673898388217  0.1705297253848558
  0.6387291360389966  0.0005715584333371  0.3727160864852033
  0.7651589963407988  0.0039488358777100  0.3754822459128859
  0.6816300174863253  0.0001686056582007  0.0611731291013219
  0.5043122298621959 -0.0000056085959460  0.8681980666692990
  0.7342685777953410  1.0001221245706911  0.8633600522798771
  0.8173688679351720  0.9998311091635439  0.5526161544393878
  0.5026898995055554 -0.0003501814254699  0.4796119467925724
  0.5160317413345941  0.0001362617122556  0.0548674003255495
  0.7319174438330045  0.0002716336162550  0.4882951244604723
  0.3294008116996032  0.7503953838582462  0.3603485561903069
  0.2319174539821078  0.7502716971344850  0.4882951041045013
  0.0026899000928891  0.7496497239604319  0.4796119682417606
  0.3173688371003358  0.7498310582410050  0.5526161335983445
  0.2342685670065870  0.7501221418216590  0.8633600606981404
  0.0043122471170751  0.7499943288297392  0.8681981238863768
  0.1816299952594760  0.7501686250844335  0.0611732166879713
  0.2651589735119951  0.7539489513077098  0.3754822337913677
  0.1387291343670464  0.7505716205268788  0.3727160937395317
  0.3168283826713960  0.7493673509904851  0.1705297581280517
  0.8294008117319144  0.0003953372769529  0.3603486312017367
  0.1696034182516471  0.7499002521596485  0.8625281239214172
  0.5364290321324383  1.0002953147021765  0.9851104339849902
  0.5148926148647539  0.0002377428266335  0.6736217515899291
  0.1827326600422347  0.6244493280846457  0.2288380034013993
  0.7858663269825588 -0.0004397489534588  0.6802604522765230
  0.6508632540420972  0.9999633454902971  0.1777216364636638
  0.6836782972169245 -0.0003935040574527  0.6774732215266873
  0.5674401661176274  1.0001668264161219  0.8688726291204139
  0.7981120039847132  0.9990612543275269  0.4834517895882977
  0.6507060671644049  0.9995661045136063  0.5623647916376391
  0.6618477908630713  0.0002056234078952  0.9840100312196172
  0.6301184586825647 -0.0003202210180033  0.4884048919637879
  0.6621081925125640 -0.0000757234634325  0.3693182506787724
  0.8304571171050524  0.0001179359793189  0.9816091980644723
  0.6311190437456772  1.0002080503899125  0.8643856983937656
  0.6939144298160557  0.0001492062590259  0.8710847987156434
  0.7472994424536793 -0.0000445765506477  0.6748015601067346
  0.6187272308285471  0.0000023066223892  0.6743494566815079
  0.7556583726250632  0.0010606118785044  0.1779439840833419
  0.5996476627038567  1.0002304013110401  0.9871156139093161
  0.5994458478631125  0.9959147941082670  0.3606525640958273
  0.7969865808405049  0.0000766560813674  0.8687953998745652
  0.5788174850780489  0.0000102700951808  0.6756409551661117
  0.7647416019587896  0.0002766499404517  0.9814459608092809
  0.7012307392923610  1.0000600236265282  0.9841640635865747
  0.8044072803728568 -0.0000850808632430  0.3629810364783241
  0.0988578267376806  0.6256477012341056  0.5389777896189761
  0.0287292423855880  0.7499475430711564  0.8637531857819568
  0.0364290317114618  0.7502952452315713  0.9851104350475217
  0.5991418820208135  0.1530346231237765  0.8137666557987564
  0.1187271977699241  0.7500024408963769  0.6743494641656167
  0.2472994250984251  0.7499554253413050  0.6748015500420586
  0.1939144103846043  0.7501491639352690  0.8710847747037622
  0.3044072783783877  0.7499148623586929  0.3629810940536657
  0.1311190712633233  0.7502080655523704  0.8643858021032012
  0.1621081991453088  0.7499242757401966  0.3693183009405369
  0.1301184521915043  0.7496798414599370  0.4884049077826180
  0.1618477623749778  0.7502055808345237  0.9840100936133617
  0.1507060911738576  0.7495661090203330  0.5623647625149436
  0.7658104852260539  0.0974593503011165  0.8138031089206768
  0.2981119868096209  0.7490613628258983  0.4834518220966161
  0.1836783013774405  0.7496063832699886  0.6774731445168325
  0.1508632647126088  0.7499633177990936  0.1777216221886391
  0.2858663068681095  0.7495602891290657  0.6802604861667075
  0.7654006099858107  0.8740438837880861  0.5378601733934517
  0.9525329883279650  0.2495603405314007  0.6802604201896119
  0.8175299494825219  0.2499633817786554  0.1777216273281267
  0.8503449791575463  0.2496063410545857  0.6774731299044739
  0.7341068456306712  0.2501669144759828  0.8688725838314386
  0.9647786739252381  0.2490613081756228  0.4834518157421979
  0.8173727491655916  0.2495661187376596  0.5623647716971927
  0.0674401926150698  0.7501668628595508  0.8688725892533080
  0.0160317304442839  0.7501362530360153  0.0548674142724319
  0.2556583429212106  0.7510605838963497  0.1779439886023514
  0.0994458324084879  0.7459148575353375  0.3606525528593107
  0.6827326553194575  0.8744494007637454  0.2288380366513619
  0.6827295361696492  0.1251502945435272  0.2287939633172950
  0.5988578536747386  0.8756475604028724  0.5389777652469948
  0.5987339448413412  0.1240439680936924  0.5378601743177852
  0.6186354332778389  0.8765637300209105  0.2317267774251864
  0.6184411678736828  0.1235609851405752  0.2321215891160875
  0.6505336712204600  0.8748646546186278  0.7275631198312912
  0.6504968110865120  0.1246571389308724  0.7275468311353899
  0.7019190387953840  0.1251846788049781  0.5330726126596004
  0.7019104505516662  0.8736975387606757  0.5333467196727216
  0.0996476690099696  0.7502304210745003  0.9871156286373017
  0.7342265155850299  0.1265414391840089  0.0378376271699143
  0.7145577097500283  0.1240983997892370  0.7308033373233715
  0.7145346447547588  0.8761326392711223  0.7306447129694835
  0.6309515704804467  0.1264196050296531  0.0343979041122854
  0.6309539874361914  0.8740849548238935  0.0342028801301533
  0.3304570715536217  0.7501179762095381  0.9816092269634402
  0.0148926001050110  0.7502377463033020  0.6736217510289971
  0.2012307493397799  0.7500599433264951  0.9841640364752788
  0.2647415952918653  0.7502766762911972  0.9814459689860942
  0.0788174700032850  0.7500102943375514  0.6756410179865974
  0.2969865610836839  0.7500766294922779  0.8687953896423639
  0.7342447896712373  0.8739715172564929  0.0380753335054446
  0.7655245323690942  0.6256476964083428  0.5389777829711556
  0.1191996508737597  0.4995603032746646  0.6802604571414094
  0.8493993061590200  0.6244492680385034  0.2288379718461130
  0.2976182405199647  0.1264194806147887  0.0343979315673678
  0.2976206469715404  0.8740849340278658  0.0342028785907006
  0.4324771352909367  0.0974592846909610  0.8138030558656326
  0.2658085554614675  0.1530346375197145  0.8137666748195316
  0.0991418858706950  0.4030345837748795  0.8137666580630047
  0.2658104740575409  0.3474592643649155  0.8138030527478061
  0.6191996285451187  0.2495602891064814  0.6802605024610591
  0.4841965925757191  0.2499633312539828  0.1777216214868590
  0.5170116354686541  0.2496063752203148  0.6774731437032645
  0.4007735246538225  0.2501668844804336  0.8688726524254705
  0.6314453504940367  0.2490612585829764  0.4834518057479198
  0.4840394264858444  0.2495662200278817  0.5623647818032290
  0.4951810871208154  0.2502056516276182  0.9840100686792236
  0.3812013026921742  0.8761325768222886  0.7306447843913504
  0.4634517888069247  0.2496798503320860  0.4884049322610160
  0.4644524112532243  0.2502080072095069  0.8643857791660036
  0.6377406123374980  0.2499148461051322  0.3629810667843041
  0.5272477484074426  0.2501492123840081  0.8710848412095270
  0.5806327469639928  0.2499554016318711  0.6748014982184224
  0.4520605346137586  0.2500023800679412  0.6743494603944213
  0.5889916876408683  0.2510604499774993  0.1779439401862861
  0.4329809948879498  0.2502303656809405  0.9871155842983907
  0.4327791781231929  0.2459148494351424  0.3606525695303781
  0.6303199075683920  0.2500766443321858  0.8687954184832134
  0.4121508101736356  0.2500102268449385  0.6756410294261816
  0.5980749304346227  0.2502766988404372  0.9814459123443988
  0.5345640752969306  0.2500599412140109  0.9841639560242592
  0.3482259281562868  0.2502377367559714  0.6736217400928560
  0.4954415377603642  0.2499242748840311  0.3693183173033282
  0.6637904140122978  0.2501179626426769  0.9816093409827618
  0.3812243695167226  0.1240984008612671  0.7308033810415364
  0.4008932292808262  0.1265414629734527  0.0378376284774135
  0.4636532423526630  0.5000766418635944  0.8687954819509200
  0.2661124970305938  0.4959148920201152  0.3606525636875702
  0.2663143267450979  0.5002304161150154  0.9871156452768163
  0.4223250117318179  0.5010606365129416  0.1779439753406674
  0.2853938480890429  0.5000024473187538  0.6743494818481885
  0.4139661013047296  0.4999553836090392  0.6748015093864844
  0.3605810801420616  0.5001491791510401  0.8710848397095040
  0.4710739356933856  0.4999148819581923  0.3629810589130008
  0.2977857400831223  0.5002080538698561  0.8643858143177078
  0.3287748727475979  0.4999242795489136  0.3693183179842099
  0.2967851141468900  0.4996798556663354  0.4884049388739283
  0.3285144228357616  0.5002055887104691  0.9840100726959413
  0.3173727598010965  0.4995661060146137  0.5623647790177170
  0.4009114528547058  0.8739715144549891  0.0380753127024234
  0.4647786739195430  0.4990612461821903  0.4834517894862010
  0.3503449724657694  0.4996064152318969  0.6774731806845997
  0.3175299273731665  0.4999633463514253  0.1777215903903496
  0.4525329875456936  0.4995603062714922  0.6802604142310451
  0.3493993257582127  0.8744493847881971  0.2288379590096274
  0.3493962131925903  0.1251504412241198  0.2287940010238033
  0.2655244809208671  0.8756476561740453  0.5389777722795763
  0.2654006132247475  0.1240438765993144  0.5378601611367506
  0.2853020726195010  0.8765637357500590  0.2317267141511677
  0.2851078447063006  0.1235610917136288  0.2321216695462694
  0.3172003378565522  0.8748646351657633  0.7275630746990102
  0.3171634697991794  0.1246571755443888  0.7275469151205545
  0.3685857154999678  0.1251847321807666  0.5330726613390796
  0.3685770812303459  0.8736975491967005  0.5333466996149452
  0.2341068583249558  0.5001668838129171  0.8688726327221382
  0.3697623606677204  0.2502952902538855  0.9851104166976117
  0.3493650745451405  0.2501362825371601  0.0548674083898522
  0.3620625873282625  0.2499475020898445  0.8637531915384425
  0.4838669906699966  0.1248646457935255  0.7275630358419332
  0.4838301519817286  0.3746571743662594  0.7275469237111817
  0.5352523849655598  0.3751847366561143  0.5330725791783208
  0.5352437425632212  0.1236975655222050  0.5333466634775856
  0.5675598453085097  0.3765414030253501  0.0378376104749598
  0.5675781386909847  0.1239715701642647  0.0380753018135150
  0.5478910615558041  0.3740984767957838  0.7308032891792304
  0.5478679587746281  0.1261325533374550  0.7306447444448249
  0.4642848918768350  0.3764195787201408  0.0343979292646989
  0.4642872976689301  0.1240849259735514  0.0342028271063255
  0.5991438138082418  0.3474592808837592  0.8138030199967635
  0.4324752251591753  0.4030345027344819  0.8137666425257166
  0.3294008148148747  0.2503953267798151  0.3603485388857593
  0.4517745039699911  0.3735610426736869  0.2321216780917650
  0.2319174601203392  0.2502717599179203  0.4882951118630292
  0.3173688548059415  0.2498310700268737  0.5526161505172317
  0.2342685632780149  0.2501221498080732  0.8633600674682304
  0.0043122365782521  0.2499943216739693  0.8681981294534757
  0.1816300050373995  0.2501686157808654  0.0611731727753109
  0.2651589739069104  0.2539488805835496  0.3754822137527108
  0.1387291368884644  0.2505716332445258  0.3727161013187923
  0.3168283743559412  0.2493673875141490  0.1705297680264081
  0.1696034199215168  0.2499002519673194  0.8625281226340248
  0.0287292421281078  0.2499475206452712  0.8637532408209136
  0.0160317400140468  0.2501362654426216  0.0548673898217574
  0.0364290327041326  0.2502952539946934  0.9851104165853337
  0.3304570860762882  0.2501179948800757  0.9816092754551358
  0.0148926150583925  0.2502377707922758  0.6736217548372134
  0.0026899006694888  0.2496497213864343  0.4796119611550640
  0.4519687570010106  0.1265636813577547  0.2317267483498588
  0.4320672593709480  0.3740438370883425  0.5378601443661553
  0.4321911492420420  0.1256476688353309  0.5389777619068495
  0.5029367438508496  0.2499002350331399  0.8625281496183215
  0.6501617107795484  0.2493673949071264  0.1705298457979295
  0.4720624853172027  0.2505716071377272  0.3727161297412458
  0.5984923045129745  0.2539489756253379  0.3754822538205571
  0.5149633438775959  0.2501686158487059  0.0611731960141628
  0.3376455705406862  0.2499943444061387  0.8681981617319253
  0.5676018979832891  0.2501221601523884  0.8633601057999311
  0.6507021807327117  0.2498311668933886  0.5526161604916526
  0.3360232415533451  0.2496496956332049  0.4796119463197117
  0.5652507871033637  0.2502716978509961  0.4882950509703107
  0.6627341497901871  0.2503953380830430  0.3603485311226925
  0.1309539823906644  0.1240849328747776  0.0342029095877796
  0.1309515723546882  0.3764195431923935  0.0343979171235859
  0.2145346232741825  0.1261326023003768  0.7306447826067400
  0.2145577204205041  0.3740983861504565  0.7308033735754330
  0.2342447625408748  0.1239715109386185  0.0380752962010345
  0.2342265556342171  0.3765414404013947  0.0378376033584949
  0.2019104050974710  0.1236976001677595  0.5333467131645871
  0.8493962357467645  0.8751504424041904  0.2287940244229822
  0.1504968255805360  0.3746571802977733  0.7275469258944737
  0.1505336647426053  0.1248646050931891  0.7275631175757982
  0.1184411606767699  0.3735610960454742  0.2321216528218782
  0.1186354189545777  0.1265636366602443  0.2317267528948938
  0.0987339317821842  0.3740438710818642  0.5378601464299168
  0.0988578166897783  0.1256476526977588  0.5389777773942291
  0.1827295510032671  0.3751504563975407  0.2287939998553690
  0.1827326594420165  0.1244493803444296  0.2288379725539592
  0.5160660059885394  0.1244493232758920  0.2288379453307988
  0.5160628809004607  0.3751504065308122  0.2287940050064146
  0.2454841376111617  0.5000103099016977  0.6756410361796664
  0.2012307549041276  0.2500600028638299  0.9841640659102313
  0.4314082776272010  0.5002766343456988  0.9814459788178358
  0.1815592603208690  0.5002377492018828  0.6736217522676788
  0.6627341626702857  0.7503953390271801  0.3603485566710123
  0.4007735449415943  0.7501667945736212  0.8688725843657739
  0.5170116665817148  0.7496063860007157  0.6774731546931628
  0.4841965871928523  0.7499633093181691  0.1777215942187931
  0.6191996395740328  0.7495603488667092  0.6802605151235799
  0.5160659909770645  0.6244493382700707  0.2288380022946433
  0.5160628954322903  0.8751504667679894  0.2287939871967236
  0.4321911493273169  0.6256477015069443  0.5389777428486857
  0.4320672825619585  0.8740438813910293  0.5378601356518700
  0.4519687451782266  0.6265636566371987  0.2317267495033239
  0.4517744835812808  0.8735610849250132  0.2321216832381253
  0.4838670032408002  0.6248645575726683  0.7275631296649444
  0.4838301550826106  0.8746572274567247  0.7275469436376117
  0.5652507902969396  0.7502716948781070  0.4882951198289554
  0.5352523869008974  0.8751847068028832  0.5330726156418947
  0.5675598917344528  0.8765414291902456  0.0378376364274440
  0.5675781050620022  0.6239715456800232  0.0380753294909965
  0.5478910538102327  0.8740984955206411  0.7308033807490393
  0.5478679458426521  0.6261324974802531  0.7306447122917666
  0.4642849246262564  0.8764195290673039  0.0343979219331307
  0.4642873097685601  0.6240848747206018  0.0342028591432344
  0.5991437983081677  0.8474592694368974  0.8138030027582063
  0.4324752084712027  0.9030347160260362  0.8137666570117466
  0.2658085496764750  0.6530346329099566  0.8137666064174718
  0.4324771332105582  0.5974592350064639  0.8138030607998969
  0.2976206475021146  0.3740849479394899  0.0342029287554926
  0.2976182369409013  0.6264195515259219  0.0343979052716711
  0.3812012866068833  0.3761326421267031  0.7306447235253180
  0.5352437517457990  0.6236975806131869  0.5333467370258882
  0.3812243787790235  0.6240983696714674  0.7308033545086881
  0.3360232392733784  0.7496497380328027  0.4796119580568949
  0.5676019033183033  0.7501221270851800  0.8633600876490153
  0.6314453289495551  0.7490612465164939  0.4834517678789671
  0.4840394279323824  0.7495661680120955  0.5623647768460284
  0.4951810935213277  0.7502056724086563  0.9840100895769942
  0.4634517926190676  0.7496798538959984  0.4884049115802176
  0.4954415297910210  0.7499242273012758  0.3693182843796665
  0.4644523956769635  0.7502080167380404  0.8643857425535486
  0.6377406264913874  0.7499149541875331  0.3629811117827965
  0.5272477602539246  0.7501490851296029  0.8710847941501964
  0.5806327575725878  0.7499554369766304  0.6748015482792017
  0.4520605269533995  0.7500024741848859  0.6743494209872342
  0.5889916878807618  0.7510605856106183  0.1779440212396674
  0.4329810006570885  0.7502304106841717  0.9871155832385035
  0.4327791532584910  0.7459148589555760  0.3606525500486122
  0.6507021885108993  0.7498311126344093  0.5526161553140104
  0.6303198953982485  0.7500766161402178  0.8687955034995685
  0.5980749254522474  0.7502766581378079  0.9814460132974198
  0.5345640869657629  0.7500598454226192  0.9841640461951741
  0.3482259340479074  0.7502377136537910  0.6736217545344128
  0.6637904413488659  0.7501180381577585  0.9816092933833797
  0.3697623581492797  0.7502952745656555  0.9851104334543304
  0.3493650775317061  0.7501362636284736  0.0548673798155929
  0.3620625829034460  0.7499475286524255  0.8637532108188419
  0.5029367477239617  0.7499002180631491  0.8625281345108118
  0.6501617287253423  0.7493674529103408  0.1705298102589805
  0.4720624895785290  0.7505715856289498  0.3727161068256218
  0.5984923432991069  0.7539488204307913  0.3754822718405766
  0.5149633347694953  0.7501686385896760  0.0611731935464500
  0.3376455604523903  0.7499943995715158  0.8681981588107811
  0.4121508196854443  0.7500103412464663  0.6756409665322040
  0.4009114474796983  0.3739715294419894  0.0380752931521995
  0.4008932322169798  0.6265414849009489  0.0378376375829272
  0.3685770566877051  0.3736976532474072  0.5333466903861113
  0.1826983974235774  0.0001362771331052  0.0548674180042007
  0.1953959050366515  0.9999475663544577  0.8637532336191919
  0.3362700969279764 -0.0000997687510544  0.8625281386912176
  0.4834950457788978  0.9993673036478266  0.1705297405976228
  0.3053958061997769  0.0005716197034874  0.3727161297911414
  0.4318256436800202  0.0039488648007919  0.3754822042372306
  0.3482966736078053  0.0001686008464161  0.0611732052516692
  0.1709789023692570 -0.0000056625389585  0.8681981322578435
  0.4009352313905836  1.0001221338197941  0.8633600735854473
  0.4840355316724786  0.9998310054316184  0.5526161412301702
  0.1693565684446231 -0.0003502516346642  0.4796119193353158
  0.3985841345350211  0.0002716573562876  0.4882950760584193
  0.4960674877639610  0.0003953424256188  0.3603485468016149
  0.2030956923606062  1.0002952383484676  0.9851104240636601
  0.4960674842052925  0.5003953514930439  0.3603485313612956
  0.1693565672361194  0.4996497081499724  0.4796119479051821
  0.4840355120378549  0.4998310749124101  0.5526161155275140
  0.4009352133050615  0.5001221306678250  0.8633600931054208
  0.1709788972276509  0.4999943370909101  0.8681981191037683
  0.3482966769100724  0.5001685993537360  0.0611732059312787
  0.4318256431793835  0.5039489084199987  0.3754821823823008
  0.3053958087311903  0.5005716347425966  0.3727161108051752
  0.4834950515975028  0.4993673885650094  0.1705297844308036
  0.3362701033733265  0.4999002212004265  0.8625280870656661
  0.1953959116236763  0.4999475366133603  0.8637531972769847
  0.1826984032928372  0.5001362920191215  0.0548673720004662
  0.2030956962973959  0.5002952275794278  0.9851104408477410
  0.4971237521611988  0.5001178650324228  0.9816092910799299
  0.3985841343392982  0.5002717005344871  0.4882950958136879
  0.4971237556398865  0.0001179729821974  0.9816092932976760
  0.1815592684042932  0.0002376942817257  0.6736217350764752
  0.3678974174634171  1.0000599201570275  0.9841640448170069
  0.3685857240571846  0.6251846563447609  0.5330726289620505
  0.3171635096326757  0.6246571884192018  0.7275468954200027
  0.3172003429270360  0.3748646131401038  0.7275631502034726
  0.2851078283823018  0.6235610910281986  0.2321216486680997
  0.2853020906259247  0.3765636901218072  0.2317267871323248
  0.2654006049259571  0.6240438799506752  0.5378601165240123
  0.2655244774764715  0.3756476754602975  0.5389777607195614
  0.3493962110932874  0.6251503314004195  0.2287940183446762
  0.3493993208523880  0.3744493417275899  0.2288379658706959
  0.4525329858684451 -0.0004396831803833  0.6802604294436877
  0.3175299380394210  0.9999633075008768  0.1777216271559869
  0.3503449752526825 -0.0003936633826719  0.6774731438388104
  0.2341068613041815  1.0001668964191766  0.8688725857434285
  0.4647786521714932  0.9990612796908369  0.4834517571516840
  0.3173727566440849  0.9995661394126008  0.5623647975559006
  0.3285144412535260  0.0002056327992416  0.9840100389476507
  0.2967851177590468 -0.0003202229867527  0.4884049156326367
  0.3287748563948628 -0.0000757440198078  0.3693182998493270
  0.2977857336525774  1.0002081470581936  0.8643857908323166
  0.4710739328208648 -0.0000850909856588  0.3629810876104939
  0.3605810751955588  0.0001491678421167  0.8710847698494327
  0.4139660948167007 -0.0000445698824775  0.6748015003689039
  0.2853938767857879  0.0000024162979362  0.6743494845311122
  0.4223250147430803  0.0010606035460476  0.1779440121365599
  0.2663143336018506  1.0002303458577471  0.9871156335706136
  0.2661124958072539  0.9959148052103487  0.3606525504867207
  0.4636532300543158  0.0000766805831755  0.8687954499010447
  0.2454841415094866  0.0000102834709979  0.6756410271992758
  0.4314082780042729  0.0002766294635814  0.9814459910803804
  0.3678974257768103  0.5000599254158915  0.9841640817408567
  0.2647415933789205  0.2502766676134082  0.9814459505242618
  0.2019190442298029  0.3751846823024292  0.5330726166759181
  0.0675598850365222  0.1265414179120894  0.0378376417954717
  0.6827326730079069  0.3744493908862400  0.2288379551878502
  0.6827295548733932  0.6251504379905091  0.2287940347420810
  0.9009352461393187  0.7501221247714539  0.8633600869650420
  0.5988577979435682  0.3756475988189756  0.5389778137928560
  0.5987339427726224  0.6240439544590884  0.5378601739887690
  0.6709788916083350  0.7499943712901355  0.8681980601121014
  0.8482966758340960  0.7501685482955514  0.0611731867742843
  0.6186354184584959  0.3765636938356094  0.2317267556693952
  0.9318256415287721  0.7539488489707281  0.3754822173129232
  0.6505336540676235  0.3748646045241162  0.7275630983027178
  0.6504968208244447  0.6246571622031247  0.7275469158141655
  0.7019190828998328  0.6251847527781142  0.5330725726560084
  0.8053958068434336  0.7505716193930088  0.3727160324537417
  0.7019104285898440  0.3736976459001632  0.5333467644399271
  0.7342265491615275  0.6265414508602496  0.0378376566236186
  0.7342447716489983  0.3739715124676880  0.0380753467139986
  0.7145577188850611  0.6240983989772183  0.7308033351824368
  0.9834950428938003  0.7493673629108859  0.1705298125339364
  0.8362700758124109  0.7499002282432172  0.8625281242735697
  0.6953959396985161  0.7499475424752086  0.8637531646632276
  0.7145346429255666  0.3761325840317806  0.7306447219000455
  0.9840355419342234  0.7498310549612435  0.5526161866406238
  0.6309515885654118  0.6264195385122791  0.0343978605750476
  0.6693565753913802  0.7496497742037947  0.4796119515890634
  0.9960674916771811  0.7503953592356771  0.3603484678815631
  0.6816300082516004  0.5001686163323950  0.0611732087147014
  0.5043122313703261  0.4999943465823693  0.8681981362196044
  0.1303199080370961  0.0000766117762386  0.8687954063414047
  0.7342685596205522  0.5001221361519379  0.8633600394734651
  0.8173688685692148  0.4998311330844735  0.5526161891077391
  0.5026898956103025  0.4996498635086065  0.4796119046160659
  0.9121508138615192  0.0000103649246397  0.6756409493314856
  0.0980749277528702  0.0002766777675016  0.9814460193475492
  0.7319174449094624  0.5002716358204017  0.4882950721760654
  0.8294008487163747  0.5003953186574336  0.3603485465860390
  0.0345640833896584  1.0000599308022848  0.9841640373279712
  0.8482259344833136  0.0002377283942054  0.6736218162434884
  0.1637904117854299  0.0001179837786684  0.9816092514568970
  0.8697623772074932  1.0002952899662945  0.9851104888451662
  0.8493650794437800  0.0001363277243120  0.0548674511660076
  0.8620626029263493  0.9999475462313431  0.8637531553346977
  0.0029367545066882 -0.0000997484337859  0.8625281131755865
  0.9324751937014896  0.1530346088942989  0.8137666640296777
  0.0991438038365171  0.0974592945351707  0.8138030289109155
  0.1501617060786216  0.9993673844764329  0.1705297736249807
  0.9720624557996747  0.0005716557805064  0.3727161020314229
  0.7967851277287523  0.7496798139545828  0.4884049505279012
  0.6826984016772130  0.7501362257374397  0.0548673941812352
  0.6309539530530587  0.3740849312428772  0.0342028135710025
  0.7030956831236398  0.7502952256546248  0.9851104237237301
  0.9320672612720153  0.1240438649366254  0.5378601588588833
  0.9321911462681912  0.8756476676024939  0.5389777622181020
  0.0160628822048149  0.1251503938044722  0.2287939710588858
  0.0160659940791342  0.8744493623527877  0.2288379766514436
  0.1627341495385673  0.0003953495744684  0.3603485332552026
  0.0652507847108901  0.0002716817506094  0.4882951027726453
  0.8360232079114874 -0.0003501462225385  0.4796119379501782
  0.1507021882222075  0.9998310955575975  0.5526161299053907
  0.0676018976537335  1.0001221671822651  0.8633600720146088
  0.8376455541187784 -0.0000056081357136  0.8681981933948817
  0.0149633323080482  0.0001685800862748  0.0611731702937739
  0.0984923146959526  0.0039488696739796  0.3754822219218104
  0.9525329722664319  0.7495603448709763  0.6802604409973714
  0.8175299172398816  0.7499633273715811  0.1777215423987755
  0.8503449529820971  0.7496063997829240  0.6774731045119690
  0.7341068776687120  0.7501669563490798  0.8688725482565950
  0.9710739531642326  0.7499148449658070  0.3629810829394177
  0.7977857378658815  0.7502080424501341  0.8643857882678184
  0.9647786586873233  0.7490612888496750  0.4834517800204106
  0.8173727718074983  0.7495661197305681  0.5623647350096237
  0.8285144112999758  0.7502055988216207  0.9840099722390115
  0.9519687324901100  0.8765637415625258  0.2317267431809259
  0.8605811099318936  0.7501490946522996  0.8710847841472952
  0.9517745008272473  0.1235610140958629  0.2321216215337572
  0.9838670052084143  0.8748646328084878  0.7275631511312551
  0.9971237471259004  0.7501180260210102  0.9816092679783323
  0.6815592880397807  0.7502377600912634  0.6736216966175931
  0.8678974471507149  0.7500599790537159  0.9841640345977255
  0.9314082563038444  0.7502766663341222  0.9814460366678007
  0.7454841335345301  0.7500103036034856  0.6756408891666081
  0.9642872833053564  0.8740849224517682  0.0342029057509194
  0.9642849351101872  0.1264195530799317  0.0343979270121239
  0.9636532297978694  0.7500766701207917  0.8687954732024240
  0.0478679550049840  0.8761326138690261  0.7306447179153885
  0.7661124948821232  0.7459148153668511  0.3606524687688041
  0.7651590011675361  0.5039489314223075  0.3754822480297154
  0.0478910467755232  0.1240983819455946  0.7308033046985339
  0.9223250314521574  0.7510605763011503  0.1779440117593132
  0.0675781004359285  0.8739715750569031  0.0380753113522141
  0.0788174759629030  0.2500103068683366  0.6756409754003647
  0.0352437446389806  0.8736976237403906  0.5333467010345341
  0.0352523837245595  0.1251846823840098  0.5330726073189744
  0.7658104834217635  0.5974593141496540  0.8138030544387747
  0.5991418894015725  0.6530346123585496  0.8137666202220164
  0.7853938712927062  0.7500025038299010  0.6743494135644477
  0.9139661091280604  0.7499554084394857  0.6748015033944602
  0.9838301520562736  0.1246571941607997  0.7275470006416012
  0.7663143292949914  0.7502303572071908  0.9871156390327123
  0.6387291643050960  0.5005716144199962  0.3727161538275401
  0.8985841289725152  0.7502717976490734  0.4882951115554058
  0.6696034286200445  0.4999002283443895  0.8625280815372524
  0.9644524331025671  1.0002079951148626  0.8643858055639053
  0.1507060852194829  0.2495661020136475  0.5623647518657688
  0.2981119988409502  0.2490613468578668  0.4834517683604912
  0.1377406117757610 -0.0000851065637610  0.3629810627362754
  0.8168284092869744  0.4993674272600723  0.1705297401039565
  0.0272477539610786  0.0001492357937731  0.8710848298262183
  0.0674401917497276  0.2501668986861909  0.8688726004100423
  0.9954415576697820 -0.0000757520202082  0.3693182872611537
  0.1836783028100036  0.2496063799909003  0.6774731308834112
  0.2858663075836490  0.2495603073091031  0.6802604674012253
  0.7858663505224242  0.4995603087526574  0.6802605560410764
  0.6508632499212925  0.4999633050950137  0.1777216454714839
  0.0806327540578947 -0.0000446120008790  0.6748015560099740
  0.6836783384943951  0.4996064297671615  0.6774731710891175
  0.5674402367255391  0.5001668170429687  0.8688725624977643
  0.9520605128223980  0.0000023766616950  0.6743494068203206
  0.1508632526635701  0.2499632930347348  0.1777216050461037
  0.1618477469703677  0.2502056046105913  0.9840100328758459
  0.9634517747268386 -0.0003201599209814  0.4884049519249159
  0.9951811206288923  0.0002056321576648  0.9840101153895255
  0.2969865799088761  0.2500766278823320  0.8687954554833027
  0.1191996396784474 -0.0004397134881176  0.6802604671804757
  0.9841965981840506  0.9999632406166395  0.1777216362483417
  0.0994458347915725  0.2459148546944325  0.3606525727045645
  0.0996476608839539  0.2502303766868416  0.9871156160522319
  0.2556583418263040  0.2510605529723588  0.1779440091090772
  0.0170116268472251 -0.0003935727022772  0.6774731130673390
  0.1187271920046606  0.2500023913943315  0.6743494626300153
  0.9007735258869062  1.0001668650649862  0.8688727042372183
  0.2472994222623935  0.2499554067139592  0.6748015405416790
  0.1939144132412934  0.2501491338291407  0.8710847508261544
  0.1314453276467743  0.9990612972071806  0.4834517756128368
  0.3044072851927075  0.2499148590710783  0.3629811002219096
  0.1311190737961818  0.2502080474133114  0.8643857841045167
  0.9840394147921978  0.9995661174998577  0.5623647973717562
  0.1621082028848210  0.2499242721981779  0.3693183172786326
  0.1301184538463261  0.2496798405523000  0.4884049075031735
  0.7981119757782039  0.4990613035656202  0.4834517996984074
  0.6507061146336489  0.4995661575616711  0.5623648220128861
  0.8287748604788778  0.7499242552305733  0.3693183142181911
  0.7556583568615808  0.5010605782840096  0.1779440567376378
  0.8044072762753489  0.4999148373294265  0.3629810488033454
  0.5788174843775826  0.5000102943413983  0.6756410380323494
  0.7969865799657218  0.5000766283266580  0.8687954790476837
  0.6621082068871048  0.4999241683094742  0.3693182663790775
  0.7647416070064856  0.5002766901886272  0.9814459629778214
  0.5994458496981644  0.4959148769117857  0.3606525475967448
  0.6187271988732692  0.5000023162253090  0.6743494434953369
  0.6939144229704319  0.5001492437019753  0.8710847943285129
  0.7012307433794147  0.5000599680459752  0.9841640259075718
  0.9327791683506680  0.9959148864018420  0.3606525147601571
  0.5996476686347522  0.5002303959778768  0.9871155863041592
  0.6311190842702495  0.5002080529704485  0.8643857718265968
  0.5148926149700768  0.5002377460360288  0.6736217328389773
  0.8304570931692504  0.5001181313173140  0.9816091836378055
  0.5364290428360905  0.5002952681551488  0.9851103709872774
  0.5160317422070539  0.5001362195214892  0.0548674087745889
  0.9329810073787805  1.0002303973511435  0.9871155948582004
  0.6618477805253420  0.5002056064338354  0.9840101013045200
  0.6301184531511811  0.4996798671787830  0.4884048838500398
  0.5287292516459023  0.4999475142893008  0.8637531757170762
  0.7472994257511362  0.4999554102424836  0.6748014667537184
  0.0889916817829498  0.0010605899392610  0.1779439726850759
  0.3826058195254730  0.7492908334215300  0.5676204630239340
  0.4501553430173956  1.0001661662775543  0.0686478776104904
  0.1168220115896045  0.5001661244369281  0.0686479077844414
  0.5680104126302398  0.8755369292490641  0.4117680494538684
  0.2460961242228213  0.8752093598873468  0.2380369734672986
  0.7159391436053121  0.7492907582278028  0.5676204429879518
  0.2346770842624151  0.8755369777921014  0.4117680404352718
  0.2332128916805444  0.6239924949621917  0.4158888336746482
  0.2454354875312044  0.6249319195538598  0.2302222161934381
  0.8826058329837209  0.4992907754839900  0.5676204872195506
  0.9018224018956306  0.4988826437989847  0.4882925653362339
  0.9194258272358891  0.4991803188720169  0.1692257168872548
  0.3888431816939256  0.9998795836544112  0.6607440916794798
  0.3378503231109661  0.0005818566335355  0.4860851055729205
  0.0045169910881908  0.5005819153930026  0.4860851285373965
  0.5045169878830096  0.7505818578265098  0.4860851122445951
  0.2159391476678097  0.9992907639001020  0.5676204659793604
  0.2143623137611169  0.8742326677526645  0.3448006398689721
  0.9121021462150244  0.6249319582789028  0.2302221569010421
  0.8685988155988319 -0.0001855813060045  0.3752921876671288
  0.2019321635227851 -0.0001856837501256  0.3752922077983015
  0.2146926541859452  0.6256145226050269  0.3440593063940132
  0.3675220686704528  0.9996945055905229  0.3570963339070738
  0.9442828540835402  0.5001031740300299  0.1630440568817890
  0.0555098589692557  0.4998795809791400  0.6607440813298069
  0.2527591253423713  0.9991803316159792  0.1692257690665164
  0.8790455889055148  0.0000840728954438  0.1777927253802618
  0.9127627868041754  0.8752093374268540  0.2380370139531843
  0.9442828340192034  0.0001031785705011  0.1630440404514869
  0.0555098575883996  0.9998796124139514  0.6607440795316561
  0.2351557583431468  0.9988825514014560  0.4882925589490966
  0.8378503244866337  0.7505818335248347  0.4860851067305859
  0.8998795543943693  0.6239925082698332  0.4158888020236299
  0.0341887388410929  0.4996944736073166  0.3570963190216077
  0.6168220198446321  0.7501661561573534  0.0686479285268282
  0.9501553655649803  0.7501661365295419  0.0686478747107040
  0.9013437718199597  0.8755370520402271  0.4117680419337001
  0.2776161556171687  0.0001031977769162  0.1630439907011385
  0.8675220639716743  0.7496944715101838  0.3570963047977385
  0.4194257990780600  0.7491803324788014  0.1692257691734302
  0.7526711230660869  0.8756654486658272  0.3460854588063648
  0.8998795651297289  0.1239924046578883  0.4158888125356021
  0.9127627810196609  0.3752093600489216  0.2380370238491188
  0.9121021526420168  0.1249318441270821  0.2302221889581241
  0.5556055602680009  0.6251504406608139  0.2297235536158437
  0.3887238313911371  0.6248492680287141  0.2282012005718757
  0.3889388970264421  0.3751503642784995  0.2297236317559013
  0.4193377890237067  0.8756654234337050  0.3460854275443706
  0.0488076871590381  0.5001122591443796  0.1659422693192647
  0.2526711099661555  0.6256654387964568  0.3460854007233846
  0.9013437682523027  0.3755369944978368  0.4117680361544072
  0.5476955952264155  0.8742326474455330  0.3448006675000147
  0.3813593126493841  0.3756144875518582  0.3440593004136805
  0.5480259799977044  0.6256145052034185  0.3440593282218926
  0.8821410219909976  0.7501122265159188  0.1659422049492548
  0.4013437689485614  0.6255369509666460  0.4117680695624773
  0.3998795497243426  0.3739925044716738  0.4158888048208938
  0.4127628021997987  0.6252093425584121  0.2380370081047493
  0.4121021475299946  0.3749319250026794  0.2302222128631232
  0.5787688054130257  0.6249319455918861  0.2302223102641172
  0.5794294473017215  0.8752093777790556  0.2380370209812183
  0.5665462046435767  0.6239924109192976  0.4158888493856598
  0.3810289714538496  0.6242326486031475  0.3448006668448937
  0.4018224370299933  0.7488825718410842  0.4882925036606335
  0.5553904945857646  0.8748492656889156  0.2282011123898181
  0.8813593152353735  0.6256144837615807  0.3440593613574382
  0.7351557422099014  0.7488826335607246  0.4882925600769761
  0.7527591340964769  0.7491803409269822  0.1692258544951798
  0.5341887272087500  0.7496945865469183  0.3570963603475071
  0.8685988557697740  0.4998144628167558  0.3752923074379762
  0.8790455904674015  0.5000840434279558  0.1777928451587152
  0.8887238079805156  0.3748492039872113  0.2282010846592329
  0.8889389299400058  0.1251504013581048  0.2297236529798295
  0.7019321740797562  0.7498143631559137  0.3752922170278896
  0.0341887472253831  0.9996945236983124  0.3570963231650492
  0.7123789325146268  0.7500840618530156  0.1777928101405528
  0.8810289634821481  0.8742325407155400  0.3448007002846792
  0.8887238668441820  0.8748493322026358  0.2282011384295299
  0.8889389037713094  0.6251503754915848  0.2297236485932312
  0.3790455848463714  0.7500840382627267  0.1777927660571197
  0.7526710922642438  0.3756653827976698  0.3460854352239970
  0.5488077208783827  0.7501122054687077  0.1659422918186717
  0.9194258256239602  0.9991804109167554  0.1692257282488216
  0.8810289621430644  0.3742327010588191  0.3448006708773617
  0.8813593195104814  0.1256145315704157  0.3440592959448683
  0.1168220157299159  1.0001660792471971  0.0686479124819092
  0.9018224073983484  0.9988825616268232  0.4882925064436575
  0.8826058382531684  0.9992908510201942  0.5676205137476715
  0.3685988441584830  0.7498143259850274  0.3752922340528808
  0.0045169871739096  0.0005819039494273  0.4860851091035501
  0.0457122547357074  0.2500840984618599  0.1777928240587400
  0.0860044374650776  0.8756654582676199  0.3460854322327538
  0.5457122392179994  0.5000840617197218  0.1777928142288916
  0.5352655056608346  0.4998143102703652  0.3752922180679154
  0.0860044385564440  0.3756654378666590  0.3460854313120835
  0.2222722299905994  0.1251503739231523  0.2297236456364520
  0.2220571635221096  0.3748492733799577  0.2282011791999570
  0.7008554199446493  0.4996944848721827  0.3570962907705673
  0.5488076942301462  0.2501122626901862  0.1659422408393455
  0.5860924588870374  0.4991803800642839  0.1692257465590712
  0.5492725019126584  0.4992907974024074  0.5676204769287531
  0.7834886971323710  0.5001660451257219  0.0686478705594057
  0.6711836518195897  0.5005818595836722  0.4860851012036809
  0.7221765360849743  0.4998795402754366  0.6607440503375012
  0.6109494881426848  0.5001031888181888  0.1630439815554234
  0.1109494995089407  0.7501032149569149  0.1630440018775416
  0.5684891013809371  0.4988825560012131  0.4882925792184172
  0.7154743822775893  0.5001122462391738  0.1659423073661901
  0.3790455950379288  0.2500840644762596  0.1777928699640085
  0.3685988291717033  0.2498143487375231  0.3752922363689387
  0.0476956450923876  0.1242326254615227  0.3448006365595899
  0.4442828285592604  0.2501032118422590  0.1630440106969044
  0.5555098442504349  0.2498796343688485  0.6607441170017928
  0.0480259918583339  0.8756145109620460  0.3440593073925998
  0.7154743864634675  1.0001122415101780  0.1659422752538319
  0.0680104231837210  0.1255369469721081  0.4117680526485291
  0.0665462135327885  0.8739925118864387  0.4158888162650681
  0.0794294647834152  0.1252093842243366  0.2380369637310184
  0.5045169857880937  0.2505818461473636  0.4860851021983699
  0.6168220106003238  0.2501662051514994  0.0686479189719649
  0.0787688289771138  0.8749319372443799  0.2302221894152702
  0.3826058143530205  0.2492907307526542  0.5676204644765375
  0.4018224395209977  0.2488825969166752  0.4882925152215706
  0.4194258037158577  0.2491803078541809  0.1692257553402640
  0.5341887413942279  0.2496944802876868  0.3570963151501699
  0.2221765236366280  0.7498795000798644  0.6607440801758524
  0.1109495018005183  0.2501032217141890  0.1630440141013635
  0.1711836567718281  0.7505818876179011  0.4860850854387121
  0.2834886921028907  0.7501660850622965  0.0686479055661397
  0.5680104368708223  0.3755369164121910  0.4117679819349925
  0.5665461987047939  0.1239925035823917  0.4158887830977444
  0.5794294446149978  0.3752092810872121  0.2380370902152649
  0.7222722475079171  0.8751503734453560  0.2297236560387120
  0.7220571769574131  0.1248492838596953  0.2282012747030808
  0.5787688165482079  0.1249319321449972  0.2302222309856447
  0.1711836612440170  0.2505818519356636  0.4860851151049591
  0.2834886670192805  0.2501660987847114  0.0686478985618175
  0.0492724803508333  0.2492907728838925  0.5676204802193611
  0.2154743538431806  0.2501122561256465  0.1659422640008625
  0.0684890963051677  0.2488825340692268  0.4882925432359770
  0.0860924694300999  0.2491803262253346  0.1692257450896562
  0.2008554095383590  0.2496945076425635  0.3570963108424772
  0.0352654803985442  0.2498143637478174  0.3752922537728690
  0.2154743593035675  0.7501122740050039  0.1659422839583108
  0.5860044344501121  0.1256654295725182  0.3460854382836435
  0.9193378068923461  0.1256654667336445  0.3460854685075576
  0.0457122547657141  0.7500840674695860  0.1777928097957303
  0.7143623366756986  0.1242325532620730  0.3448005722906917
  0.2221765193290070  0.2498796074175184  0.6607441250482431
  0.0492724892380207  0.7492907800354293  0.5676204874048194
  0.0684890946883744  0.7488825624745522  0.4882925313514725
  0.0860924634226913  0.7491803140281407  0.1692257863831239
  0.2008554052652872  0.7496945354606025  0.3570963333292330
  0.7454354892633979  0.8749318658923456  0.2302221232827330
  0.7460961153149589  0.1252093537516523  0.2380369031395550
  0.7332128639813474  0.8739924214782697  0.4158888246861706
  0.7346770604929896  0.1255370456417012  0.4117680642794140
  0.5553904883980738  0.3748493274380999  0.2282011920465028
  0.5556055683745776  0.1251503574883255  0.2297236583826693
  0.4193377789010385  0.3756654512388692  0.3460854461679246
  0.5476956669296699  0.3742326978258879  0.3448006403269656
  0.0352654850377546  0.7498143451050424  0.3752922237377275
  0.7146926763399997  0.8756145789101549  0.3440592815597145
  0.5480259907913095  0.1256145149040295  0.3440593480342325
  0.2123789204982254  0.0000840168459648  0.1777928184682635
  0.2143623104796286  0.3742326437169977  0.3448006432134839
  0.2346770897221085  0.3755369784412338  0.4117680457264621
  0.7346770841572572  0.6255369922637608  0.4117680487660068
  0.2123789227115427  0.5000840344354002  0.1777928326886701
  0.2019321582976376  0.4998143662246773  0.3752922255540904
  0.7146926759328593  0.3756145797193934  0.3440592726817772
  0.3675220767174326  0.4996945272637470  0.3570962874594723
  0.2527591193270818  0.4991803035730001  0.1692257555167498
  0.0787688239796563  0.3749319718012848  0.2302221834970608
  0.2351557623871125  0.4988825618845645  0.4882925198806986
  0.2159391544591326  0.4992907606564101  0.5676204781244495
  0.4501553579885109  0.5001661158472256  0.0686479148808272
  0.3378503359149377  0.5005818777466640  0.4860851285864901
  0.6109495059561855  0.0001031877222182  0.1630439795066321
  0.7221765372339572  0.9998795377331344  0.6607441709438291
  0.5860044389110122  0.6256654153579647  0.3460854070901597
  0.7143623138615040  0.6242325260206646  0.3448006218218548
  0.0794294657600101  0.6252093760454491  0.2380369871890781
  0.0665462179450866  0.3739924728862258  0.4158888176095141
  0.0680104255655007  0.6255369608931378  0.4117680290046213
  0.8888431721360684  0.7498796132579967  0.6607440666042663
  0.7776161654978607  0.7501032732249988  0.1630440013140295
  0.2222722329417955  0.6251503844622164  0.2297236724140493
  0.2220571724701518  0.8748492743930533  0.2282011950040092
  0.3821410275774268  1.0001122446758328  0.1659422867010894
  0.0488076860466257  1.0001122346392333  0.1659422540984879
  0.0553905011368198  0.6248492639975992  0.2282011937232554
  0.0556055576033052  0.3751503770578831  0.2297236301051883
  0.3821410179384431  0.5001122365659310  0.1659422547474360
  0.9193377718569054  0.6256654901091994  0.3460854602005710
  0.0476956412049846  0.6242326577698626  0.3448006412429568
  0.0480259883741980  0.3756145334311164  0.3440592975787821
  0.7454355116244265  0.3749319659472062  0.2302221639978300
  0.7460961569361397  0.6252094222501932  0.2380368716273731
  0.7332128708293726  0.3739924407894371  0.4158887504557901
  0.0553904988242841  0.1248493047772053  0.2282011773561988
  0.0556055611086097  0.8751503891477732  0.2297236527084419
  0.3888431926888770  0.4998795655571148  0.6607441037824806
  0.2776161727747087  0.5001032049829828  0.1630440230402431
  0.3887238322234567  0.1248493090642179  0.2282011980810933
  0.3889388934241907  0.8751503372955377  0.2297236597639188
  0.2526711169440294  0.1256654381873401  0.3460854213604438
  0.3810289870498048  0.1242326265270613  0.3448006872499830
  0.3813593387753192  0.8756145273804617  0.3440592972029747
  0.4442828325429329  0.7501031419000289  0.1630440097525600
  0.8888432210109594  0.2498796052990737  0.6607440713724360
  0.7776161699064701  0.2501032098256715  0.1630440215547638
  0.4013437560090501  0.1255369412423603  0.4117680351532661
  0.3998795459777739  0.8739924959023777  0.4158887949159754
  0.4127627897488353  0.1252093409996909  0.2380370023421551
  0.4121021475209032  0.8749319371636387  0.2302222228855177
  0.2454354919985579  0.1249319445625319  0.2302221735867639
  0.2460961267177217  0.3752093606512641  0.2380370097745364
  0.2332128773630730  0.1239925126387680  0.4158888127913793
  0.8378503156224715  0.2505818484957250  0.4860850946928288
  0.2146926588224217  0.1256145159798486  0.3440593143265149
  0.9501553351029892  0.2501662156680855  0.0686478842715061
  0.7351557476880020  0.2488824894283225  0.4882925663942922
  0.7222722328949337  0.3751504266870513  0.2297236149394129
  0.8821410527316980  0.2501123087832913  0.1659422202373213
  0.7220571664586514  0.6248492459419336  0.2282012103651702
  0.6711836522391839  0.0005818659856388  0.4860850986396468
  0.7834886957302597  1.0001661506449562  0.0686478746745642
  0.5492724969748830  0.9992907343644153  0.5676204826880633
  0.5684890909016476  0.9988825862739514  0.4882925798648084
  0.5860924545753724  0.9991802933750383  0.1692257854920520
  0.7008554436180467  0.9996945388213631  0.3570962563989918
  0.7123788913647982  0.2500840448404383  0.1777927899873550
  0.7019321693443005  0.2498143445610309  0.3752921630419978
  0.5352655018936676 -0.0001857298051517  0.3752922156749238
  0.5457122397467501  0.0000840852761492  0.1777928116258956
  0.8675220741512381  0.2496944995458809  0.3570962040266428
  0.7527591317281285  0.2491803444967525  0.1692257833200858
  0.7159391649627963  0.2492908287693778  0.5676205215786386
  0.5555098503028886  0.7498795602346614  0.6607440915085181
