26
Lattice="12.12776649 0.0 -0.00117028 0.0 4.05070973 0.0 -2.09132204 0.0 7.3445026" Properties=species:S:1:pos:R:3:momenta:R:3:forces:R:3:energies:R:1 energy=-132.05809020996094 stress="0.015126185491681099 2.983283366120304e-06 0.004318451974540949 2.983283366120304e-06 0.004424458835273981 -5.657507244904991e-07 0.004318451974540949 -5.657507244904991e-07 0.005601180717349052" free_energy=-132.05809020996094 pbc="T T T"
Al       4.34062732       1.00236136      -0.65320595      -0.53772757      -1.08026776       1.49717887       0.00020661       0.00029022      -0.00000916      -4.07685448
Al       7.64103001       1.00244772       1.87221224       1.14311784      -2.60056807      -4.04120106       0.00002345       0.00014079       0.00032093      -4.08863403
Al      10.91146718       5.05308539       4.39001334       2.12520563      -1.75033706      -1.64604644       0.00008390       0.00092240       0.00020836      -4.19986798
Al       4.23994667       3.02786642       1.18952689      -1.35629050       3.26585334      -1.79940789       0.00017668      -0.00076585       0.00002539      -3.96549346
Al      10.94374196       3.02788599       2.58051707       1.02807677       2.17627305       2.68470957       0.00034210      -0.00064473       0.00024839      -3.99295999
Al       6.68645048       5.05318278       4.28109699       1.95744333      -0.08311452      -2.07300761      -0.00029744      -0.00007734       0.00000995      -4.00329091
Al       0.32415015       3.02768564       6.75815356      -0.33077337       1.11455362      -0.07712337      -0.00020356       0.00016954      -0.00016154      -4.03843476
Al       8.55014657       3.02791594       3.84098545       3.07021316      -1.08830010      -1.00396587      -0.00026386      -0.00050276       0.00017887      -4.23854782
Al       8.24689381       1.00247961       8.57370010       2.45729705       0.21154014       0.65136510       0.00071453       0.00032410      -0.00001600      -3.97489358
Al       4.92295246       1.00244171       2.46619257      -0.15315420      -0.38648729       1.48179167       0.00025145       0.00032652      -0.00003121      -3.95788123
Co       0.32288804       1.00254859       2.50545937      -1.89864284       1.91958080      -0.68569671       0.00004733      -0.00024141       0.00012027      -7.72717762
Co       6.37231904      -1.02289315       2.51538255      -2.82385696      -3.07992502      -6.31229528       0.00008423      -0.00019965      -0.00046000      -7.76398277
Ni       4.41575503       5.05299346       5.53880050      -2.47197394       0.80103977       3.96725319      -0.00013843       0.00049534       0.00012894      -6.63226032
Al       4.79611867       3.02768698       4.34112312       2.22671641       4.77042878      -0.26886063       0.00009283       0.00029057      -0.00024304      -4.07353283
Al       8.39242952       3.02777984       6.71489803      -1.80807871       0.79802235      -1.20524894      -0.00004172      -0.00012786      -0.00005332      -4.13167788
Al       2.51800724       1.00242283       3.80549023      -0.16410888       2.39707209       4.42916548       0.00009386      -0.00004563      -0.00003318      -4.19379927
Al       1.52877021       3.02790920       1.84016492      -0.38684400       1.65956636      -0.21916875      -0.00031074      -0.00039573      -0.00022260      -4.08996274
Co       0.70314169       1.00249671       8.54279155       3.20041450      -0.72214777      -0.68193310      -0.00012801       0.00000425       0.00013050      -7.77089310
Ni      -1.32978127       1.00243499      -1.83850267      -0.24481804      -4.36246124      -2.38721437      -0.00013145       0.00011289       0.00023947      -6.63683796
Al       6.45138093       1.00224497       6.77877518       0.47169241       0.41812261       0.99393871      -0.00039031       0.00029002      -0.00041321      -4.02579595
Co      12.56467917       3.02781600      -1.87789711       0.08168176      -5.27842962       1.03779303      -0.00000321      -0.00064633       0.00023889      -7.57654858
Co       8.86899271      -1.02287686       1.18752221      -1.34625540      -0.98473392      -0.99817604       0.00005142      -0.00022924      -0.00002421      -7.76678467
Al       0.58887754       1.00240269      -0.15335644      -1.58248359      -0.04811049       3.81497033       0.00003345       0.00007662       0.00019850      -4.25995113
Ni       2.67632632       3.02771367       5.53515247      -2.99731603      -1.15474810       0.97214357      -0.00001036       0.00000621      -0.00019643      -6.66013908
Al       4.57847006      -1.02310577       7.24933315       2.68104693       0.90354095       2.20772330      -0.00026913       0.00030005       0.00021733      -4.19135572
Al       0.66510482       3.02771927       4.28595279      -2.34058192       2.18403717      -0.33868693      -0.00001352       0.00012712      -0.00040209      -4.02051689
