Al Co Ni
 1.0000000000000000
    12.1277664900000008    0.0000000000000000   -0.0011702800000000
     0.0000000000000000    4.0507097300000003    0.0000000000000000
    -2.0913220400000001    0.0000000000000000    7.3445026000000002
 Al  Co  Ni 
  18   5   3
Direct
  0.3425810777794895  0.2474532691236798 -0.0888834917440775
  0.0449567360438445  0.2474634709375069 -0.0208732762049137
  0.6911284389281788  0.2474245347042345  0.9230827963668594
  0.1692650736653606  0.7475009067004283  0.2505769427123249
  0.2969802032276744  0.2474684431119795  0.5181886358141847
  0.8496829949566006  0.7474689729106789  0.9144107855769653
  0.4974043998540177  0.7474460487489807  0.5911503417882142
  0.5477410416856426 -0.2525744480693722  0.9871293614947134
  0.4638403079273548  0.2474731029711329  0.3358614635594749
  0.1554752113642481  0.7474540201563353  0.5835840732608378
  0.7952098235724351  0.7475025723996839  0.5231009206088665
  0.1854070231537968  0.7474457168142109  0.9201944506728600
  0.6518673870840106  1.2474808411625093  0.5830020212166289
  0.9629849232005644  0.7474951784157834  0.3515069942757746
  0.3775457093366847  0.7474903462712054  0.1620216899531710
  1.0028097650091385  1.2474567989595935  0.5978875833364986
  0.6740202877089954  0.2474745879850717  0.2550208140657080
  0.8813262800443028  0.2474824596207175  1.1675033644560524
  0.0854516380649925  0.2474994885331123  0.3411475913660749
  0.5845066703383672 -0.2525219568170150  0.3425782147840278
  0.2585602699351251  0.2474866828588533  1.1631957398208193
  0.9919621177979622  0.7474778996894202 -0.2555293849894998
  0.7591990331346503 -0.2525179347371166  0.1618095531093899
 -0.1528178786041657  0.2474714440113146 -0.2503479960974796
  0.3506465048746444  0.7474526364018418  0.7537015264106116
  0.4941614137726819  1.2474341042628105  0.7542210966681268
Cartesian
 -0.0019576103020151 -0.0039327411019223  0.0054505161382356
  0.0041615483127196 -0.0094674313920018 -0.0147120908495582
  0.0077368628281550 -0.0063721446866762 -0.0059924721470692
 -0.0049376085751543  0.0118894186026693 -0.0065507882364392
  0.0037427384982345  0.0079227750193680  0.0097737505439725
  0.0071261200977509 -0.0003025804178063 -0.0075468346789736
 -0.0012041885155439  0.0040575596084897 -0.0002807694971069
  0.0111771857618551 -0.0039619830103602 -0.0036549622010292
  0.0089458497462859  0.0007701170479500  0.0023713105232993
 -0.0005575615953437 -0.0014070163800617  0.0053944986661803
 -0.0031645644638055  0.0031994628186059 -0.0011428855415001
 -0.0047066658229677 -0.0051334674721519 -0.0105210231701956
 -0.0041369976021966  0.0013405884128897  0.0066394376910547
  0.0081064153264487  0.0173668621136714 -0.0009787936541022
 -0.0065823545535017  0.0029052198042801 -0.0043877381215165
 -0.0005974423785186  0.0087265992973716  0.0161244847914619
 -0.0014083150016284  0.0060416917311880 -0.0007978891635512
  0.0053342934123165 -0.0012036403617374 -0.0011366125408170
 -0.0004097177735490 -0.0073008422181260 -0.0039951473424578
  0.0017172077051674  0.0015221855249273  0.0036184580900647
  0.0001361431352801 -0.0087978267626216  0.0017297423547685
 -0.0022438722598072 -0.0016413060444417 -0.0016637107126478
 -0.0057610700277502 -0.0001751474143972  0.0138884923731956
 -0.0050161893032008 -0.0019325406461973  0.0016269409407781
  0.0097604166272347  0.0032893628183000  0.0080372704429573
 -0.0085209454802260  0.0079510405024286 -0.0012329980261421
