Al Co Ni
 1.0000000000000000
   121.2776649000000049    0.0000000000000000   -0.0117028000000000
     0.0000000000000000   16.2028389200000014    0.0000000000000000
    -6.2739661200000008    0.0000000000000000   22.0335078000000024
 Al  Co  Ni 
 2237 648 235
Direct
  0.0404838609749163 -0.0008749855180773  0.1529832341286586
  0.6406792253408526 -0.0014683512052203  0.4892663041037449
  0.6905877782994778  0.1296952736395734  0.4843151652590190
  0.6045500063912663 -0.0004454593632718  0.4572096160337878
  0.6545959177140209  0.1257934409220476  0.4574015466436628
  0.6802003809888006  0.0007837700696272  0.6285718280532815
  0.6320685371324336  0.1259041533249409  0.6215597527127641
  0.6232371018011789 -0.0007004444016728  0.5492682908359525
  0.6941428272860990  0.1247288182548872  0.2648101770396561
  0.6728859033057987  0.1253738700329602  0.5497450149691622
  0.6718797162662765  0.1271950473906821  0.3938532549581421
  0.6037112002873605  0.0060055496853990  0.5768118478996750
  0.6528022812872986  0.1249108627493481  0.5781063530175535
  0.6436011763851908  0.0002461115460105  0.3786150802356595
  0.6930351326172245  0.1250671931972356  0.3752147615584283
  0.6618136154504589  0.0013369141614167  0.6625375061190072
  0.6132638798432549  0.1220795891156372  0.6601762785234193
  0.6221300264087979 -0.0017715001202230  0.3958625474658983
  0.6734088302195292 -0.0015459827898231  0.4745015150523878
  0.6439905860396790 -0.0036648044759178  0.2662953704015029
  0.6735061891160050  0.0084985829504007  0.1427779610919426
  0.6403833268074233  0.0047915821309418  0.1485105648382668
  0.6905047421175050  0.1293991896434919  0.1472862011945084
  0.6046983966862132 -0.0084971209954690  0.1207973690184751
  0.6545755480311732  0.1254087981148907  0.1223056917648486
  0.6817859499816845 -0.0067000396476205  0.2870107562174030
  0.6321485133346230  0.1316047172082274  0.2884976734682086
  0.6226376622320429  0.0021334976783008  0.2187118819629975
  0.6219454200246642  0.1217992825365107  0.1370548281707499
  0.6728553610777609  0.1264853670819850  0.2190771835709455
  0.6715802836950004  0.1251552243948033  0.0551380464718753
  0.6025009524494261 -0.0079008489968216  0.2386407935361264
  0.6534920844593681  0.1305085554714160  0.2444051743486769
  0.6426299690495013  0.0006403423077823  0.0343550849906013
  0.6918207671929871  0.1325076371211997  0.0335258688178546
  0.6640940474307004  0.0031110611572660  0.3292235653243129
  0.6142396227138707  0.1210462050494883  0.3267236982289759
  0.6217480640463952 -0.0033406191783824  0.0567796597338514
  0.6224566428347110  0.1272348035786600  0.4706074681735734
  0.6941987154084526  0.1147881132467898  0.5993706343057101
  0.6406768059244899 -0.0004091722979826  0.8205714155814365
  0.6816368507505173  0.2575471357503201  0.2897988707449154
  0.6327044356259016  0.3741911334452657  0.2875487788542386
  0.6236521501817992  0.2521354776046755  0.2138699166436179
  0.6733804727429098  0.3772673182898454  0.2161964566427668
  0.6225695547605189  0.2483692510067001  0.0634142671443016
  0.6721407448558483  0.3745129188247820  0.0595448297690357
  0.6041024174168026  0.2564876620270653  0.2421770266652157
  0.6546718279380404  0.3742481522417286  0.1241190796488855
  0.6533701193226926  0.3757247945766600  0.2455569521324173
  0.6925806843641159  0.3764198406434718  0.0336113700649321
  0.6628087256822353  0.2504109025877447  0.3258289384530328
  0.6138165134826287  0.3831475330718354  0.3218840819162200
  0.6728700335207833  0.2488181563689886  0.1394232455862356
  0.6221659465334061  0.3796213985646749  0.1361258527154800
  0.6010320649460491  0.2558813706730044  0.0126628474167554
  0.6408854576137503  0.2512062653229568  0.4882582416983229
  0.6430920293312312  0.2500942859551505  0.0357919206796425
  0.6046373600363566  0.2456789679645965  0.1285156526506454
  0.6905903337243917  0.3775097245051150  0.1543160775432812
  0.6410020885569280  0.2516346195472572  0.1541368091595196
  0.6904929749011438  0.1296371489497583  0.8221953858333116
  0.6047030698448752  0.0003405705704195  0.7924761381276215
  0.6543614099065600  0.1228784204584139  0.7900653619999128
  0.6799908910476381  0.0130260661523187  0.9524273225345115
  0.6323432468680531  0.1250700175329419  0.9531439022372891
  0.6230176505290052 -0.0014290352694219  0.8854585400574533
  0.6732727599576132  0.1303048195365946  0.8797615662714933
  0.6220211209974104 -0.0007593485361127  0.7294960623359863
  0.6720788494805012  0.1230279355224995  0.7273880180638118
  0.6025445986894807 -0.0009480839354282  0.9099226074190188
  0.6535150166066699  0.1247789224348628  0.9125435831160775
  0.6424701375914316 -0.0003549941562788  0.7024795372279324
  0.6934495372381210  0.1246426727276232  0.7112267510346933
  0.6622759079503859 -0.0050544735782018  0.9943358700217240
  0.6134363540892802  0.1202338781056727  0.9884738000220885
  0.6731746691259125 -0.0049054131084657  0.8090031303597583
  0.6228889749635209  0.1245929499480487  0.8068462760961038
  0.5012659909059660  0.7455600602777148  0.6806006684553207
  0.6906271200525818  0.3786610461726315  0.4859822646098163
  0.5216226559892019  0.8735233333045280  0.8025674483310511
  0.5145455810259982  0.8732788791416828  0.9934383424762929
  0.5623219160558021  0.4933939882740646  0.9946914428428939
  0.5130911434893316  0.6234744348815404  0.9904986865521247
  0.5728129314861941  0.4962050311866592  0.8064033939825449
  0.5224260943212169  0.6227190024880127  0.8055645010209280
  0.5406785849260642  0.7538404029178504  0.1533149603627746
  0.5904310992841875  0.8714735866451756  0.1539168200959413
  0.5047573405168458  0.7457530680176364  0.1221883647810238
  0.5929362812943311  0.6243542394789666  0.7024357299382785
  0.5544454261179282  0.8765306887270278  0.1235181329622795
  0.5328371351461031  0.8731640047200834  0.2860356703110767
  0.5232836529849748  0.7522325647880885  0.2138297138374450
  0.5732375848707858  0.8726729812807549  0.2141632111926692
  0.5221146592790382  0.7471856757028613  0.0614607513149419
  0.5719973837948544  0.8759831482656284  0.0588353777690469
  0.5032800370458476  0.7457909692644189  0.2364238276280275
  0.5535940138444816  0.8749951166830718  0.2466565521228218
  0.5821117338748486  0.7536045306167937  0.2876095089425488
  0.5430174551971875  0.7498239661153113  0.0366610361451844
  0.5430060479843084  0.4993326985627943  0.7033549205350031
  0.5023239262569207  0.4996215050797327  0.9087188195539847
  0.5436477098220158  0.4994485957074788  0.3795667195545708
  0.5918837014085883  0.6258175494930230  0.3663298742874031
  0.5624418092263308  0.4995582850751383  0.6582746687958194
  0.5137663891604224  0.6181281169024465  0.6545331257838196
  0.5727921054132040  0.4958681954848613  0.4737585360991942
  0.5228358195547285  0.6287913145005606  0.4739166380779001
  0.5405821731312830  0.5009349408909872  0.8203618822340901
  0.5537156867420403  0.6240314025077721  0.9138234541574971
  0.5905197648290322  0.6288632438817578  0.8199019814372805
  0.5544146215555164  0.6227277931774183  0.7904709272608195
  0.5799472118363841  0.5140105936017320  0.9525436030481306
  0.5322648095821992  0.6252255625515610  0.9546480117771552
  0.5229461910844091  0.4997625393789495  0.8867772254291544
  0.5733724874104935  0.6299650369501035  0.8784755224837394
  0.5221552856021942  0.4975814260578912  0.7272219720976504
  0.5721214087021687  0.6234238371986220  0.7248690333509000
  0.5046854482733280  0.4975417852469715  0.7914907713451430
  0.5927706686704868  0.8742061801378174  0.0350793859970260
  0.5629656210608055  0.7476746874044476  0.3241176139710426
  0.5147503338180507  0.8824056841820863  0.3245606755012310
  0.5938653734990494  0.8750151894240138  0.5996235629739942
  0.5408476407525136  0.7492335723346275  0.8219853448829302
  0.5902336996921139  0.8739406377184304  0.8215915056309256
  0.5046800738051542  0.7476239818824537  0.7974831440852066
  0.5543154291757537  0.8755150117093540  0.7908143418718863
  0.5820658359266887  0.7482929902765723  0.9546297890574115
  0.5326665087568581  0.8755779164467330  0.9538379896991683
  0.5011622057390382  0.7494394245326123  0.3452360750450134
  0.5235632306058864  0.7505491944889177  0.8849652689342812
  0.5227543706198684  0.7457784768768757  0.7297425236091154
  0.5723646756901936  0.8748736571962510  0.7206403794751609
  0.5038622977570336  0.7439654184090948  0.9120865141851248
  0.5528336155291611  0.8746871583716462  0.9108066809061526
  0.5431389584536922  0.7499185479034819  0.7038166071189528
  0.5939675840684270  0.8746040859326303  0.7134786763296072
  0.5628869817097949  0.7519141320990206  0.9912342171117479
  0.5730008484913690  0.8736136651181643  0.8845101758125752
  0.5216076760198575  0.8652966108095835  0.4682684568155391
  0.5729072663277079  0.7564648631260021  0.4735059024869377
  0.5146134286842733  0.8700566724285088  0.6596165155371105
  0.5715373197214405  0.7482587143545635  0.1337919883710854
  0.5218014855449388  0.8770994386661132  0.1357074643951756
  0.5406003229719889  0.7510354206797681  0.4876140917256152
  0.5904912188257575  0.8736538117208087  0.4809301659804170
  0.5049044467298064  0.7447143373234502  0.4614300467836807
  0.5545978072723901  0.8750345446226729  0.4566365068441719
  0.5815003635299036  0.7427304011094307  0.6237874677707600
  0.5327456162974930  0.8781809530583184  0.6200306037881699
  0.5231221397916053  0.7503825314626348  0.5564779932619941
  0.5725825262526150  0.8743139277439305  0.5546614355041921
  0.5228054211861793  0.7477219948997171  0.3894002299132827
  0.5719481140643833  0.8750676228860084  0.3865240807644044
  0.5019327610468846  0.7462223483035628  0.5691712814724013
  0.5526451514220191  0.8743142693483340  0.5778957750730601
  0.5438182545080070  0.7495396889673104  0.3713094461151793
  0.5930241584243356  0.8750290231323307  0.3680454266635015
  0.5625644527992250  0.7491954030849735  0.6588748353535208
  0.5714446951469897  0.7532088426087533  0.7992307147413871
  0.6044967527835955  0.2504867989994030  0.4657144122613675
  0.6545252490993875  0.3738483505539445  0.4572064799887025
  0.6814893742528982  0.2540541228007502  0.6232155433336311
  0.6628687635044608  0.7453840255022284  0.3246102384144244
  0.6126955707572617  0.8751718575433813  0.3241248313582429
  0.6738037868132160  0.7408895062140550  0.1428319337299045
  0.6242460361707379  0.8767629226007535  0.1453960802287710
  0.6406894819326950  0.7546722115159283  0.4864208917145030
  0.6905388710629762  0.8710314834081812  0.4794022017610006
  0.6046465663470471  0.7457092308819909  0.4566741206506018
  0.6872325472255707  0.8760251663603850  0.0239580206308207
  0.6547072163066340  0.8746311674894243  0.4562684859459962
  0.6325598213654172  0.8747812565165858  0.6198210818066139
  0.6231765566673793  0.7525919858844852  0.5494078663371615
  0.6728062012369285  0.8750037189984083  0.5508019782119233
  0.6222843930520127  0.7487404406158987  0.3916911078974195
  0.6717097052298933  0.8729655383145649  0.3888731319816736
  0.6034873648207166  0.7427419569598288  0.5760883327615610
  0.6530211605225684  0.8753417083620944  0.5787584485767734
  0.6816463137594945  0.7461142519958398  0.6214831280163535
  0.6434348205192925  0.7509192992582359  0.3703214255856045
  0.6425804297117921  0.7497754204196783  0.0357766634858433
  0.6023379329165016  0.7513198679381333  0.2414726171825515
  0.6440420914481502  0.5002238548072957  0.7144667854519889
  0.6924413520102045  0.6233088895148722  0.7002477299725968
  0.6630344395473932  0.4984415419791535  0.9912473669560272
  0.6135209777277981  0.6328951691340660  0.9880165905799734
  0.6721801363755494  0.4963712074322885  0.8027033604152451
  0.6231454861598208  0.6277253163623150  0.8077831198721808
  0.6407338833623536  0.7468032967834458  0.1536675495629821
  0.6552012371402766  0.8687408152831462  0.2481418213174117
  0.6913047346286004  0.8736375254220810  0.1514648000403191
  0.6538721255031571  0.8756580384169497  0.1254930079227511
  0.6819194206740763  0.7522847313392123  0.2877124671055998
  0.6314420514784339  0.8686447212317316  0.2903995156090503
  0.6229955303503311  0.7472439789237656  0.2167444838138818
  0.6735195752805814  0.8739548540993333  0.2094121065072055
  0.6219766529028765  0.7529878762681939  0.0612351715677541
  0.6709264371253363  0.8753380436535032  0.0723355098580398
  0.6047101489290490  0.7542002500137623  0.1228916281940801
  0.6929459348906956  0.8750352944910241  0.3678407061920019
  0.6626304890880373  0.7494776822256622  0.6585655786642350
  0.6145023551848826  0.8751533201448582  0.6596393817374655
  0.6938574329388691  0.8737801843015347  0.9277567516558158
  0.7408629178757283  0.0010324668210723  0.1546894154115732
  0.7905156676637428  0.1209047126216985  0.1539618466360546
  0.7045813499246389  0.0027068864039253  0.1299883828892250
  0.7545139951586225  0.1269919133365893  0.1235920705137414
  0.7818758655746900 -0.0000363669312795  0.2891304416050740
  0.7326593390229058  0.1249714895731766  0.2872911217585377
  0.6227257113719062  0.8731268233247016  0.8067989850103924
  0.7236354128217365  0.0005296319292816  0.2167858023908637
  0.7225489142897153  0.0013738354326434  0.0630418008029739
  0.7718977123634759  0.1267611474437223  0.0586430905667509
  0.7043476698203520 -0.0065869317547208  0.2472453704668520
  0.7531296709824061  0.1251245690791621  0.2451432953133398
  0.7429646285624212  0.0002613886186602  0.0363065065889744
  0.7919792781938826  0.1190637865599840  0.0361933821742857
  0.7628448521606027  0.0003715008924093  0.3254847427710553
  0.7730804267125858  0.1231196738684806  0.2169989096534973
  0.6733821026113609  0.7551904075494934  0.8085866166330755
  0.6125882536824221  0.8727957049504496  0.9901223427158441
  0.6622128320141256  0.7552840616865736  0.9954788620972858
  0.6732180812353356  0.7509444861553922  0.4734391830500381
  0.6215517401046392  0.8733844163406973  0.4692452274298395
  0.6941502176756082  0.8894905859860710  0.5945408335782854
  0.6406264923124264  0.7506309559804686  0.8205093079280956
  0.6904517049210872  0.8741797383606194  0.8130772948320532
  0.6048406258523396  0.7482094499658515  0.7923393903841142
  0.6545535144006629  0.8748824051507719  0.7896147055677009
  0.6799274288951355  0.7368481347614786  0.9537439237014846
  0.6319192546138781  0.8753927207453568  0.9562315662580302
  0.6229638742288700  0.7507352592767300  0.8879799333671364
  0.6722828571428939  0.8745539118201276  0.8890541319006195
  0.6221539264675341  0.7491822427451100  0.7265648385427067
  0.6719315162688441  0.8750474938847449  0.7207485550525519
  0.6020158659390066  0.7485344002963124  0.9091765113452616
  0.6519234905520604  0.8747472605724218  0.9093059951237981
  0.6430810020647748  0.7497573418340580  0.7030256842799018
  0.6933526904879572  0.8756040116020751  0.7052660766076502
  0.6536840656777680  0.6256144167090563  0.9136541498092494
  0.6023209905486515  0.5072922238985633  0.8982330654265875
  0.6718684718627960  0.6283536198098596  0.7288984509118062
  0.6221733062361354  0.5016734775770187  0.7280371995478436
  0.6733068704003140  0.3754550112653988  0.8860827513638023
  0.6221652094826154  0.2490161413943262  0.7263720866172704
  0.6722070112652196  0.3739715484937175  0.7226669612190888
  0.6025836007606185  0.2426550917789416  0.9004381864136274
  0.6531317794582158  0.3752016417447490  0.9113609322628038
  0.6432422021540857  0.2504863838150894  0.7046166074323750
  0.6933190632682532  0.3759189263407741  0.7042759265496922
  0.6231769971661089  0.2504680631396968  0.8849598652662561
  0.6629579907705417  0.2518757245706735  0.9903544882632240
  0.6721199424699505  0.2532743020510316  0.8024540532970362
  0.6224920243906303  0.3740533433294531  0.8058582814853453
  0.6407262509959736  0.4998684325666810  0.1544101088090456
  0.6905928237760763  0.6192519870452897  0.1539868755100241
  0.6048559504514766  0.5049842375548644  0.1296562840647268
  0.6547844350844909  0.6270133067143853  0.1241903968454113
  0.6823595163870658  0.4966620540574376  0.2893747268988756
  0.6152754396503001  0.3739807542612121  0.9880800131522720
  0.6333105962222603  0.3756851732376367  0.9519039078107187
  0.6822129436594357  0.2512015639543619  0.9534038295110813
  0.6546703504046044  0.3733423407159734  0.7916282053869486
  0.6319247361226371  0.3699763978614100  0.6244527301699045
  0.6237718391002980  0.2512394542577408  0.5492220039302996
  0.6734901314190475  0.3773853574543058  0.5483652605037606
  0.6228931406778154  0.2521833809010241  0.3923667241556326
  0.6722647190304805  0.3751172116953565  0.3901926403440609
  0.6047475452740605  0.2435604409124666  0.5824486733666379
  0.6548151462888129  0.3695106257257892  0.5819768893347759
  0.6436629841178165  0.2503655413492285  0.3713504278032602
  0.6931797663538626  0.3758807149839395  0.3692366452852197
  0.6627563774867024  0.2463431619940879  0.6608293505092719
  0.6138871272703230  0.3777700098583910  0.6632769282441513
  0.6730668850062852  0.2515189791951548  0.4732446562972072
  0.6212532987566339  0.3756335159873303  0.4670030724706599
  0.6012310945916962  0.2522791385023366  0.3493671767181048
  0.6406189361926722  0.2498550250636310  0.8204284936210572
  0.6905039076896652  0.3756918394473883  0.8208732401128982
  0.6048626899223346  0.2475216308510717  0.7889889484005729
  0.6323752406730924  0.6271123428356010  0.2894828158778068
  0.5533372773622773  0.6250841922425981  0.5793170140750690
  0.6233266358649328  0.5014532297284624  0.2221080539104561
  0.6227683560233696  0.5023402411382791  0.0587727580191494
  0.6539159506920019  0.6308720442287122  0.5774317440480013
  0.6431193832954135  0.5005416057298305  0.3685758289862073
  0.6927585389860519  0.6235364590944801  0.3688501179214029
  0.6646081467746339  0.5035240119343700  0.6609293635239023
  0.6126091322610876  0.6236604605689400  0.6601236018372408
  0.6713813834468370  0.4992831398632133  0.4671586843550558
  0.6240775901549006  0.6252019894974287  0.4764208321427387
  0.6035188168762957  0.5078010579881196  0.5769498643189894
  0.6442132781920435  0.4994604439771966  0.6019529297692507
  0.6907954550226012  0.6212769295337673  0.8189834508868338
  0.6048485809257128  0.5028807066655945  0.7868377724767139
  0.6544298782667148  0.6289396159247160  0.7904043000756780
  0.6822032942299789  0.4998302689562091  0.9548970616776877
  0.6325856452329922  0.6237327623749694  0.9544303952664185
  0.6231171391559004  0.4997120311304587  0.8842012344541724
  0.6732462590008664  0.6205731804307535  0.8782982769214638
  0.6405916330307624  0.4999163919269465  0.8230702916268620
  0.6722376755401367  0.6252258756866005  0.3927492886006921
  0.6221487811651358  0.5043520787836240  0.3926522408254327
  0.6734401651333268  0.6225407664745689  0.5494763536927296
  0.6720715305213171  0.6258181296852886  0.0553143918881913
  0.6022620891772380  0.5009288654545964  0.2416677596194169
  0.6524986290128992  0.6253565995840368  0.2433092356845483
  0.6436558814427639  0.5003240060309077  0.0380998671434816
  0.6928286186400712  0.6172889054657176  0.0392202485131266
  0.6630142968826164  0.5017870192172106  0.3241455496968773
  0.6129729478756277  0.6261614608951886  0.3223938113424448
  0.6719111385590768  0.5026000921540742  0.1360173360725855
  0.6221791732377812  0.6232128535835354  0.1371657569094493
  0.6010971890057717  0.4958554216100726  0.0117660418352489
  0.6405530999367017  0.4968872111566790  0.4829506967563764
  0.6906162888644276  0.6202659724755325  0.4878969176893231
  0.6045980626981365  0.5077592174479104  0.4560407652777017
  0.6545515067455903  0.6271365895512192  0.4572180995210773
  0.6827498941581192  0.5001570920253015  0.6200450378513360
  0.6314065835522937  0.6297138034946173  0.6235193403182757
  0.6230290150378860  0.4967399316347876  0.5490120087713429
  0.6730765052794493  0.6223886349953788  0.2220857056999865
  0.5021006847563102  0.4996117833488586  0.5743298211096217
  0.5717757250142890  0.6280444713613769  0.3974779551368682
  0.5220211543439605  0.5004801555540140  0.3976798591170650
  0.4921903812401467  0.6170753107446018  0.3708598251298966
  0.4627192724366908  0.5015023995058695  0.6587295859133551
  0.4145356091286618  0.6188490232648584  0.6523062631916811
  0.4717667851929800  0.5000407402699557  0.4691039381528157
  0.4226075466514246  0.6231378049021497  0.4729103136756964
  0.4411237927744012  0.5040126560857824  0.8217325458414779
  0.4906937542012615  0.6216062380718858  0.8204512360644339
  0.4428070047516984  0.5006396237690568  0.3698175840167461
  0.4040745894174573  0.4926136928890412  0.8002881568665574
  0.4818198650029008  0.4997456017056530  0.9537792999595560
  0.4324435688438616  0.6203583202444037  0.9543874792905599
  0.4239529755689708  0.5037126879750310  0.8763061037553321
  0.4731160311411767  0.6243906532934403  0.8824129996410072
  0.4222951872154031  0.4982831293153668  0.7341655434504156
  0.4718079056171198  0.6261404123878540  0.7278941841600497
  0.4060735946250161  0.4923671778246312  0.9190806510942598
  0.4545336293571077  0.6261421638090364  0.7898084142053649
  0.4528014008388849  0.6244134095296721  0.9106684733733940
  0.4530309784478876  0.6249197356312393  0.5772233220709182
  0.4717983960974222  0.6266851670119303  0.3905984217956562
  0.4534884951827607  0.6255382488808806  0.2457107514977176
  0.4429893809969307  0.5001238724609722  0.0354165763446206
  0.4924926164084243  0.6247113051330176  0.0349720650407086
  0.4624195640177418  0.4993513936225097  0.3265255721168340
  0.4146066424401026  0.6336267092546808  0.3265255704335908
  0.4732016241335640  0.4970172118480058  0.1406355746378550
  0.4219227180752353  0.6280542357163268  0.1358405031510515
  0.4018436841714739  0.5004226717048754  0.5697478870615948
  0.4404665210447337  0.4998178006864297  0.4865365584215536
  0.4046360085846767  0.5015172801256293  0.4570441647425229
  0.4544013765695256  0.6274299628323242  0.4563634223760614
  0.4817231443246991  0.4962523152629991  0.6215538401489448
  0.4329048530804877  0.6260450475622021  0.6183449762708373
  0.4228875670650680  0.4996225088791992  0.5535736906999725
  0.4731329389364059  0.6220068141936307  0.5500089181023599
  0.4216430097173245  0.5006449372299100  0.3918458189992490
  0.4902894128159072  0.6194934180809840  0.4869029689706540
  0.4426335884403585  0.5002048621971720  0.7021306774521190
  0.4912903779000092  0.6162002480720545  0.7016415882664285
  0.4627589672833687  0.5031578554961429  0.9912359002576890
  0.4226899089807475  0.8788904676495127  0.1392414709320904
  0.4938539878700225  0.8792762486946829  0.2647704907186852
  0.4406297212621104  0.7493803696096080  0.4870506135279803
  0.4903922319481450  0.8747049622035488  0.4823474294803784
  0.4044523317980001  0.7497784059522251  0.4570880377106736
  0.4540151865437143  0.8733112362984740  0.4551432101488214
  0.4803357275302437  0.7503600550442568  0.6186487839260398
  0.4725153220265687  0.7538357784270650  0.1380015282485152
  0.4322307831096917  0.8724804809531734  0.6212455496116018
  0.4724645713848026  0.8773706618991076  0.5455805373148567
  0.4217481984336219  0.7530906678861561  0.3983834597550019
  0.4713978985394572  0.8744844782451016  0.3933504610833181
  0.4019849261373332  0.7498928273961699  0.5717589107351728
  0.4528905331815401  0.8752153426791518  0.5780900213136468
  0.4420487213498844  0.7493801013172749  0.3673780735942664
  0.4917620316657758  0.8818735372544440  0.3722711631862177
  0.4227591000327718  0.7497763445912284  0.5508304989084660
  0.4132542912483654  0.8731258940089951  0.3217623353424658
  0.4618566269931321  0.7514019566982663  0.3268777230411342
  0.4936391985163757  0.8748943264059321  0.0439092052130469
  0.4139054454191521  0.6288345247556217  0.9943875858772804
  0.4724103713025948  0.4978461294159234  0.8039518469956157
  0.4199434811088126  0.6326945679575272  0.7963102560879328
  0.4004001239519323  0.5049174755291940  0.6845058577068118
  0.4405649254766369  0.7485284601295776  0.1533253389557081
  0.4901533300590827  0.8753784831369557  0.1495138197255307
  0.4044096519229330  0.7526355975180870  0.1237400132578038
  0.4543336023493091  0.8742280210893814  0.1224136124689422
  0.4799684584300374  0.7456365047856576  0.2870381930400395
  0.4321329083261459  0.8747930511961195  0.2867286415004371
  0.4229288485566676  0.7503185502432740  0.2171983276240908
  0.4724665718107594  0.8766013816550016  0.2180308456408562
  0.4221169911141401  0.7529877703858326  0.0617139350603625
  0.4720139048793116  0.8743356192035606  0.0537824787377792
  0.4026695437077431  0.7552867306900312  0.2398230661038449
  0.4523175054068245  0.8748729068960828  0.2426050640537574
  0.4426238787657690  0.7498152813336688  0.0349431582277714
  0.4075703244705104  0.5023191637921891  0.2534802508090588
  0.4719968305300981  0.6253349849655324  0.0598825883604458
  0.4216598942491919  0.4989019691527617  0.0585737539663308
  0.4731235769943683  0.6247130240116378  0.2127377993092427
  0.4222636341390567  0.2491523575455607  0.0592249597700119
  0.4716584008909914  0.3773742423138767  0.0561129898842742
  0.4016681701228491  0.2473549324000482  0.2323119823740234
  0.4525583395270663  0.3756646771132365  0.2435253800636297
  0.4439728041628933  0.2503053267175491  0.0469467942480934
  0.4926954138245807  0.3739553338411293  0.0338884825733177
  0.4621867787818221  0.2528216727846707  0.3254495354604753
  0.4725619989873155  0.3737360257401937  0.2185414800517039
  0.4143055165359086  0.3676759061898686  0.3263316851913743
  0.4217927519464248  0.3714481770565859  0.1357210250882404
  0.4937699202094821  0.3708858849512888  0.2664920957021338
  0.4407641038255724  0.2507369967331626  0.4882710374500265
  0.4902598089727779  0.3766037885781733  0.4882353247765821
  0.4046682520549769  0.2518961574954103  0.4616328268871689
  0.4542633828098965  0.3743456109152597  0.4564345265510875
  0.4813390804756479  0.2543800077550025  0.6235828674601335
  0.4724487418005346  0.2539703113519447  0.1375986697092031
  0.4227711146155449  0.2507064349514985  0.2184545854175661
  0.4323687720118306  0.3783754704184845  0.2855084008914894
  0.4811465470587210  0.2428863620881342  0.2914962881952997
  0.4319286717166068  0.1179971888014228  0.9573871875632773
  0.4228697964254080 -0.0002100096095211  0.8826489666736458
  0.4732698686180214  0.1267457231462509  0.8805790662925113
  0.4219985539830824  0.0002996821365382  0.7297017099036650
  0.4720005466874439  0.1245831927997419  0.7250959276084018
  0.4014817963578926 -0.0005343946114270  0.8982793879602160
  0.4542485094016546  0.1200539020383039  0.9126736414695598
  0.4422512413225660 -0.0004609666654068  0.7014305483014039
  0.4933924063258154  0.1254417608504954  0.7112817286559588
  0.4624753246911339 -0.0003754687304089  0.9926288371577499
  0.4129926762190267  0.1296376887875069  0.9874929829226753
  0.4725784102668094 -0.0028172150652363  0.8055638931692066
  0.4233010046829817  0.1295255484600673  0.8090808582743615
  0.4403765992516261  0.2499005353765087  0.1556443968119968
  0.4904182950303613  0.3743038264268564  0.1481721027238963
  0.4045117581561298  0.2476946337316780  0.1212322079651975
  0.4544693343771500  0.3778322454082183  0.1230441692571640
  0.4329433286635792  0.3746018863090982  0.6191182209002360
  0.4622244420499051  0.7483672762241503  0.6586761590740863
  0.4229031858247806  0.2503273463149052  0.5536360518760157
  0.4223422925157576  0.2461069909086935  0.3986958603669125
  0.4537753138690974  0.3818450234102003  0.9112631667808389
  0.4432850648565813  0.2505261092785537  0.7027557401104598
  0.4931833881347926  0.3740001096416868  0.7040452942061096
  0.4643117284077795  0.2487444795888951  0.9941844151770737
  0.4122785269074566  0.3703110008272605  0.9919491465397308
  0.4717701843087310  0.2517246604634077  0.8019296819524693
  0.4228450270475257  0.3643113763480435  0.8065677609196705
  0.4011967263714665  0.2511338441978190  0.9071071607215581
  0.4006528960901945  0.2623736506601561  0.6807136818423349
  0.4407544002434679  0.5016939878737952  0.1515418693209909
  0.4906186595539754  0.6251920922945096  0.1525879798780362
  0.4041138364796498  0.5008431595409069  0.1230447337067000
  0.4543995257579566  0.6258196665641460  0.1228719577959715
  0.4811751441225457  0.5037290484504134  0.2899432190217007
  0.4324261281236722  0.6226485835929442  0.2841021478083471
  0.4238898812817610  0.4998372185554743  0.2078583961828649
  0.4439384825611389  0.2507526518365233  0.9345315595697981
  0.4721300859226747  0.3745022208947740  0.7220198275228034
  0.4222253729675841  0.2482997862776717  0.7218988959453297
  0.4732439266188782  0.3737222040516764  0.8832951997394933
  0.4719398531336110  0.3742360470894988  0.3914288049966633
  0.4014236314212741  0.2504390547078236  0.5694874262415881
  0.4532764581094360  0.3754119257009653  0.5789409942612017
  0.4425779825781920  0.2504005165630041  0.3687962340934263
  0.4936648098558630  0.3754088924894487  0.3789533846053680
  0.4624999040451763  0.2486075249723854  0.6585284162466284
  0.4142996970160285  0.3809578816633989  0.6521613654563624
  0.4724289140602440  0.2481844026019866  0.4711563598130006
  0.4223335076344216  0.3759983500463203  0.4720678152292745
  0.4007990359822020  0.2379146445287113  0.3460881773192926
  0.4405579224339681  0.2492448028649568  0.8161125893930378
  0.4903911472924146  0.3737335512844593  0.8192840814706230
  0.4052335368523605  0.2395964991493082  0.7960381223919210
  0.4543755219067433  0.3766257337592228  0.7898881107099291
  0.4824157132240377  0.2490049113701436  0.9535452257676794
  0.4313249469685420  0.3858290296379451  0.9564347200474939
  0.4225299023958870  0.2487160225078184  0.8933542470926064
  0.4729713580796522  0.3753081221665974  0.5484163888548850
  0.7145968710297358  0.1244085055234396  0.3278873174894338
  0.4131063692368322  0.8793206976176181  0.6548579557733826
  0.4228265241310592  0.8788617406031916  0.4754460135039432
  0.5218661298334726  0.2500608800405669  0.3902460267519398
  0.5713780006269863  0.3730527942445516  0.3904535034013734
  0.5027955135153215  0.2554779870343619  0.5737101849654334
  0.5519554367569157  0.3738238062110117  0.5759821117466409
  0.5430257643153499  0.2502734055013752  0.3705828153015767
  0.5913281415543893  0.3846026600920583  0.3656256380542996
  0.5621088224607842  0.2497382872573347  0.6579649596785865
  0.5723694793399582  0.3759503682600953  0.5556539767448950
  0.5131111497042646  0.3756893751922149  0.6554883915368547
  0.5232567898813327  0.3735709198068443  0.4756124997945978
  0.5937857778544881  0.3746325952148765  0.5962039474791163
  0.5406440840166541  0.2485526563404425  0.8196583989981044
  0.5901617389591562  0.3747831941740371  0.8135557427037839
  0.5046364013402036  0.2518096172686876  0.7920511822018566
  0.5543715438378980  0.3736130292009815  0.7890584803331840
  0.5798990478834669  0.2376865635209192  0.9515458832339234
  0.5741695632026981  0.2563327352384665  0.4777465914361824
  0.5319114495448973  0.3744750480146533  0.9552534783895621
  0.5230754492530127  0.2500884398074247  0.5541270157763089
  0.5812390176786869  0.2435359722127154  0.6238950924486357
  0.5234645124595632  0.2504408330679622  0.2117480957664479
  0.5735841057938831  0.3768342021834821  0.2066891163890456
  0.5219369332804046  0.2510818775029112  0.0607273452527122
  0.5708392739310931  0.3719656047954029  0.0726910424898576
  0.5050717532927071  0.2439302355376085  0.2484498393513279
  0.5557599670184663  0.3689891490891566  0.2503268985874591
  0.5425016732391839  0.2492103419751251  0.0351149077936578
  0.5322428318226725  0.3750867084189139  0.6208280426849361
  0.5869192602811841  0.3756997656612598  0.0229092464674093
  0.5137998178160710  0.3794275871277451  0.3300158649468380
  0.5743886475639044  0.2377579312703477  0.1449945999675455
  0.5221201640468411  0.3791945989331840  0.1374313261324037
  0.5405578486412740  0.2490625615821166  0.4873216151846182
  0.5906917466614159  0.3803533765822776  0.4800451470358953
  0.5047847699634055  0.2509802329792577  0.4565500597394153
  0.5547002384339323  0.3716799832132604  0.4570875612194442
  0.5623704448872165  0.2434463132555556  0.3277517918519996
  0.5230264396120532  0.2498175134885756  0.8850861920988097
  0.5723174016903341  0.3751447490806472  0.8870978789706818
  0.5218664433710060  0.2537988611127376  0.7295378880663865
  0.5534015850093631  0.6298178940617670  0.2431757561022296
  0.5427404196283975  0.4999627162723290  0.0347411693757589
  0.5924303199055891  0.6322179839623326  0.0368248297160392
  0.5645665798381622  0.5052321804262481  0.3281956227938194
  0.5132379954829892  0.6164536836641666  0.3234029952522804
  0.5728048273281791  0.5087707962749142  0.1393000336485233
  0.5232823505414871  0.6212759520761811  0.1407376845979027
  0.5026126976861857  0.5053516677410358  0.2410870655806772
  0.5442009185616183  0.4960217436189676  0.2679487903050656
  0.5907270689582872  0.6256663922452150  0.4878822512228544
  0.5047260717338089  0.5001287719745873  0.4572957018798360
  0.5545163931940631  0.6267043139601099  0.4578480766864069
  0.5815041843094411  0.5082375884221417  0.6236607862583103
  0.5326698009570098  0.6241599871004871  0.6214116624504429
  0.5228692330292991  0.5008278536557277  0.5524297287785398
  0.5732021221452378  0.6257401905554311  0.5474062368394050
  0.5406830044561176  0.5015197821323027  0.4896177603991629
  0.5718576082448341  0.6242288337866015  0.0546047865363138
  0.5218992336019611  0.4993234500658912  0.0562541458184235
  0.5731494903831351  0.6281867204718455  0.2181629094250781
  0.5717959024677307  0.3744727941700915  0.7206418344308435
  0.5027193297878045  0.2495763412112981  0.9106374842799803
  0.5519238391165879  0.3746134897264893  0.9084753216665832
  0.5421781686434978  0.2491346322996859  0.6990877282697286
  0.5932977330368553  0.3756480500489712  0.7069490333874661
  0.5621394082193651  0.2545618551466566  0.9936651317857121
  0.5127886741565656  0.3728743391145073  0.9902244091184000
  0.5729244835071766  0.2530491814677302  0.8063926891759665
  0.5230283562421835  0.3760553019887185  0.8083370355179496
  0.5938892964737132  0.3744957912157094  0.9280514090081745
  0.5403336306714539  0.4995345508315421  0.1493978284664950
  0.5904130602823793  0.6297149141687770  0.1526729795571817
  0.5044887913700777  0.5013565261428277  0.1234932482715882
  0.5543899395157623  0.6241113603351581  0.1233731680127630
  0.5821097207117406  0.4998603577398920  0.2826473969031775
  0.5318139769459634  0.6313791435055239  0.2892800079955782
  0.5228239132931810  0.4981999408912696  0.2191510842310009
  0.5315722347960906  0.3674791801113421  0.2899217610948601
  0.5801681268217592  0.2577942702964172  0.2852874312252908
  0.5537133241580403  0.3740741207132014  0.1248999042344412
  0.5044463306689677  0.2506000591036597  0.1231751595006832
  0.5405428326315030 -0.0022277277619380  0.1532025815822145
  0.5905843985730360  0.1173556479709228  0.1464723087923051
  0.5046612992592220  0.0024703579632842  0.1246923960219835
  0.5545640906686600  0.1263847805585582  0.1223521415596325
  0.5812308545770848 -0.0103741925862492  0.2896207754093435
  0.5317871193551788  0.1277565276926431  0.2883778467601671
  0.5233789017628021 -0.0009928057708295  0.2179606947298471
  0.9439442204971302  0.7482629687437842  0.9331346816133388
  0.5721614829581323  0.1211176412348170  0.2218486805219303
  0.5716252671421558  0.1251228794703501  0.0535860085785286
  0.5036526734458421  0.0087132043865246  0.2428470286619123
  0.5517469807784270  0.1251759244018896  0.2414856900748447
  0.5431653865240258  0.0000354672419631  0.0364469833254250
  0.5922725522747307  0.1169249679690164  0.0343497068436042
  0.5624938341785182  0.0044176065007742  0.3263522399482811
  0.5128993766109851  0.1215200627662597  0.3273700414648441
  0.5221162791163103  0.0016189114443134  0.0580627663047232
  0.4007490315683430  0.7313740619871224  0.6842279947829970
  0.4234172012035558  0.8721303970789031  0.8083664962314905
  0.4735565575577970  0.7523872508180320  0.8081286853811880
  0.4937294902886988  0.8865280234228700  0.5966882975777533
  0.4404039738071821  0.7456987469564119  0.8203180851578282
  0.4903096262376643  0.8765149616717079  0.8171318748179539
  0.4049222393010552  0.7644117074379074  0.7969236923226991
  0.4544396314586285  0.8728449990419063  0.7897579790991802
  0.4812575001456956  0.7457186861027730  0.9572225460979854
  0.4325023248027725  0.8768074121672386  0.9532305699686003
  0.4231891088347412  0.7470308543673754  0.8888827567767380
  0.4726265119314921  0.8745765482099760  0.8852147269261847
  0.4224167582509563  0.7521689879361665  0.7228124871919192
  0.4717763398177944  0.8736326677573379  0.7223686777135407
  0.4027091677882587  0.7559545953794536  0.9102242869356348
  0.4525697752529232  0.8746838487402399  0.9101724585424892
  0.4432104282315270  0.7490510444664731  0.7035676124099333
  0.4927264593148273  0.8803759452262366  0.7078239193926638
  0.4623711561557434  0.7484027254688388  0.9921659588775836
  0.4136931661747221  0.8723524575898093  0.9868344514624143
  0.5726296009338829  0.0030586728475582  0.1390756037723740
  0.4735012555799009  0.7483735764432795  0.4745614613345888
  0.5227975435164427  0.1224747009079761  0.1379003217239074
  0.5411289608347959 -0.0011207835165681  0.4857616368323798
  0.5817962927458706 -0.0015497701807440  0.9539615089229989
  0.5320241542249814  0.1235133221799049  0.9541335029432002
  0.5233398429978474 -0.0013880337946397  0.8825132534616399
  0.5730149883980983  0.1196707872635485  0.8780554817878367
  0.5217851118933685  0.0008598234322320  0.7266737812809445
  0.5719935496331237  0.1261239759282000  0.7242998246780049
  0.5041140889402207  0.0063583155892077  0.9118166435978463
  0.5542508006287781  0.1265618278787140  0.7888795783337738
  0.5533394245722298  0.1249477031666503  0.9118814387449528
  0.5929715881638390  0.1239638563395061  0.7041123366278190
  0.5626952584727627 -0.0019270352075528  0.9904883421180609
  0.5130280712338220  0.1289806470835268  0.9917269487629355
  0.5718688334013980 -0.0038608856508743  0.8010005663607938
  0.5225749730491571  0.1258226993025386  0.8053602197137567
  0.5406618696231377  0.2500980990773006  0.1531207490528252
  0.5912985427155478  0.3772501685025204  0.1501990573337198
  0.5429270588869837  0.0001324276269313  0.7033136619856422
  0.5046276954286748  0.0020391691421591  0.7919965818033528
  0.5904466119951275  0.1208453401786278  0.8187745755217352
  0.5405413592619465 -0.0002812725601210  0.8198863328293472
  0.5908886254746454  0.1229152528223727  0.4892921822238717
  0.5040595055586200  0.0025028715546680  0.4575281182284481
  0.5542840943830549  0.1258176212723023  0.4565584551366584
  0.5813466693922633  0.0060670169286341  0.6239547431010547
  0.5325525102425964  0.1219960899608056  0.6171555191339854
  0.5239736483171462 -0.0025353840215118  0.5399236807555354
  0.5730916090449164  0.1245707354767860  0.5462019228443199
  0.5217681498073804  0.0007076913700472  0.3996590423262747
  0.5716058528660671  0.1249392896097495  0.3998044117817633
  0.5076280529938996  0.0020526457055399  0.5860497965725774
  0.5530813596573508  0.1261440319749027  0.5775758111463365
  0.5422630740261842 -0.0002822130411354  0.3676363583228054
  0.5910947840771490  0.1196706877145579  0.3715020364130762
  0.5625057923585117  0.0006491306572338  0.6591638776277703
  0.5146241745039333  0.1323874367495843  0.6598972037924394
  0.5728820930287315 -0.0073415709089004  0.4739748974526229
  0.5224633334646883  0.1310221113828374  0.4719200298831217
  0.5935680777547241  0.1261080950720604  0.2625590221730286
  0.7718493269636333 -0.0007346183480560  0.1359779588680154
  0.7214259998821031  0.1261787481586702  0.1355330409559875
  0.7010936658072704 -0.0023611115289742  0.0117032167808676
  0.9544413462224257  0.1259039263598083  0.1232122085267418
  0.9816877799736325 -0.0024706058275957  0.2879826251098425
  0.9322502236455680  0.1236261074856804  0.2874575060466340
  0.9230578538585698  0.0010427774525408  0.2164080615193557
  0.9732188096112393  0.1214973363033715  0.2140091348820838
  0.9221411662332871 -0.0019914924051616  0.0603894893305711
  0.9721423029941532  0.1263161090206452  0.0559774740418958
  0.9047542134864710 -0.0024355899648959  0.1249129946363159
  0.9026531400379564  0.0001229173038091  0.2419007666101484
  0.9431687978209521  0.0000695144913901  0.0368760270835670
  0.9928989535867876  0.1249681421355254  0.0356576721654470
  0.9626961308030115  0.0018930078396020  0.3254550410290079
  0.9130597469246883  0.1259631797813826  0.3215855804877338
  0.9724022847749237  0.0021485206838523  0.1356217978647024
  0.9225791357876627  0.1260690780741031  0.1382684948750494
  0.9404466397591771 -0.0026549618528417  0.4862046902129243
  0.9531665241032201  0.1253817103130950  0.2445885088166123
  0.9905575915189124  0.1194723686702234  0.4879945222578687
  0.9904706578073349  0.1246917965277098  0.1518200935826284
  0.8217054106163468  0.8765034515486279  0.8042878618570362
  0.8911022913190372  0.8745311370200480  0.8202919064944845
  0.8043824087484193  0.7495373973011735  0.7911265282592250
  0.8542655602799794  0.8760281655992405  0.7934779744585957
  0.8817549056142999  0.7531335722665498  0.9547156921541546
  0.8326623580254647  0.8734430593034154  0.9533925600632185
  0.8231634010205863  0.7505241467625771  0.8826645309025044
  0.8730963518346874  0.8748270143445960  0.8802908733703685
  0.9406639195336608  0.0016446370221979  0.1536089715547302
  0.8222276142016760  0.7505293589032505  0.7274716496924205
  0.8037844518376581  0.7433687045825341  0.9104460977146530
  0.8534264820744891  0.8745396632391932  0.9133511625574179
  0.8440986212405335  0.7504394116261066  0.7146253508254253
  0.8894942217947727  0.8684913501838405  0.6959333984828910
  0.8627006016442653  0.7487305201603740  0.9912835604690364
  0.8144186824430620  0.8764620043157536  0.9915571125228498
  0.8735426618024420  0.7411888215240501  0.8120054211667037
  0.8713868404611975  0.8704217076036480  0.7386446277178234
  0.9047523828905993  0.0028968541661816  0.4546184005187219
  0.9546636071284729  0.1240969549318048  0.4563989022610104
  0.9821622812806048 -0.0017523609196270  0.6219197258637799
  0.9224964456646910 -0.0008841147174271  0.7248355386784592
  0.9717404527400437  0.1204710950588494  0.7308942721921894
  0.9040755963299544 -0.0048977021631862  0.9130637630466819
  0.9530374187685208  0.1253694462766791  0.9117103816684162
  0.9434124344658260  0.0009647468436748  0.7032542293877299
  0.9916717554861070  0.1250629574771030  0.6988058310473126
  0.9627921666115030  0.0009996095030176  0.9912532960020960
  0.9730603562675215  0.1250931578298459  0.8840324668302383
  0.9144242148594686  0.1256231289343170  0.9938089197680303
  0.9210775767050916  0.1244755135878611  0.7996000149881873
  0.9008288427477323 -0.0040739959162653  0.6779231090508303
  0.9405566831057822  0.2501502238745267  0.1528795168849403
  0.9903938140538507  0.3709400416027041  0.1505770293310678
  0.9047980619064928  0.2519941955676213  0.1235244917510594
  0.9545566012559138  0.3758279663999307  0.1228717413368756
  0.9802425461104107  0.2416350412639754  0.2830325448154951
  0.9732381977543030 -0.0025391327058154  0.8086176151845346
  0.9234519100330094  0.0028583030816106  0.8828157676260121
  0.9326126391701692  0.1254715330608190  0.9544466911628130
  0.9819685152536789  0.0013180718067959  0.9551175407468622
  0.9318949447820013  0.1223073223905692  0.6221178201908059
  0.9229362000073128 -0.0017315638162745  0.5506688444133736
  0.9730744802373024  0.1219821759854513  0.5546904388040913
  0.9222301090390328  0.0020166593527384  0.3913739381682082
  0.9719070048987581  0.1255452262958454  0.3900174754495426
  0.9018508030821734  0.0005237259125605  0.5657682439783621
  0.9528907389883171  0.1211331792814776  0.5751931289264451
  0.9432475341490559  0.0000408494459309  0.3700279589158931
  0.9920781375788821  0.1193659942096952  0.3691353246981366
  0.9628003497925682  0.0019079476465637  0.6565824048142190
  0.9132136026098694  0.1291864361103578  0.6566692787951746
  0.9724523454826285  0.0009519631660224  0.4716800800551460
  0.9232186042264847  0.1246961408146345  0.4740969366617861
  0.9405676282534082  0.0033959696856786  0.8201944458759208
  0.9907318543731806  0.1250439770713345  0.8195442369456765
  0.9045293942816911 -0.0007314529109571  0.7958237671757136
  0.9545554024984672  0.1234059108059188  0.7908478774392917
  0.8404424053606311  0.7506871704674486  0.8229036279168208
  0.8440731926426158  0.7512579958118154  0.6019974906179718
  0.8225593770569899  0.8748408674369259  0.4735430438476101
  0.8731529231032608  0.7546990636801020  0.4732150073299392
  0.8863479343422124  0.6255680758943867  0.3520325505666884
  0.8629523277762521  0.4957154473100139  0.6582763907864485
  0.8127087970935956  0.6281353021983617  0.6597421044331399
  0.8749461351594293  0.4912689034084591  0.4804382665512920
  0.8226303554801603  0.6282970911345537  0.4727942657215806
  0.8404891794354435  0.5001272841298314  0.8202090906569797
  0.8908134750990867  0.6242762947115708  0.8178457068090043
  0.8423397326390925  0.4998407764894061  0.3667144451066168
  0.8048199904991574  0.5025779693221479  0.7924982998936866
  0.8818715382799541  0.4965672843744357  0.9559148389360492
  0.8320924811785986  0.6263506169913338  0.9551867924544124
  0.8228692198835261  0.4991668911645907  0.8882364716302125
  0.8726390577946896  0.6240784348373840  0.8911185985560746
  0.8221871418906280  0.5015652118877684  0.7251278122128310
  0.8715977841447931  0.6219332501526685  0.7258455941954416
  0.8019134804049439  0.5000021784879074  0.9078077859830038
  0.8547988711494110  0.6226951553958929  0.7915665024346749
  0.8547554695762108  0.6198409750146084  0.5805443628022270
  0.8042953614448268  0.5048094296493657  0.5800812249828112
  0.8708989922405064  0.6208762610927929  0.4056357910321927
  0.8074045825836549  0.4996033443330457  0.2533042832260525
  0.8525966913373871  0.6243135034012585  0.2420778263494928
  0.8427692840128876  0.5001460644237637  0.0356847409830269
  0.8922933569366363  0.6248318869892332  0.0324764970275267
  0.8624717131346619  0.5046145161126611  0.3261329764273493
  0.8145492124898170  0.6300817272179144  0.3272488865892105
  0.8726060793012894  0.5004999082917426  0.1371361465161161
  0.8217391190987779  0.6282070208350609  0.1354132988817947
  0.8406252855589067  0.5011776479046225  0.4866313280288446
  0.8913053743922523  0.6258839522621773  0.4843196770034216
  0.8046508386826916  0.5007676692275358  0.4594480406772053
  0.8538649278936967  0.6244550513302672  0.4577171750473402
  0.8818288716003437  0.5043234620255780  0.6199791114233405
  0.8314103140617277  0.6191630198407172  0.6246527752199290
  0.8233600929415565  0.4998892004088915  0.5476901929675063
  0.8734251978455287  0.6246945707309478  0.5437299109819940
  0.8217339226398943  0.5005394025190322  0.3947564435659531
  0.8521856627190109  0.6249053068089587  0.9099314508625478
  0.9323125201500271  0.3753147904440407  0.2858054418472515
  0.8434466173599416  0.5003445814007607  0.7043842672273692
  0.8625320201934441  0.5004166039623124  0.9902009667984751
  0.8405313710798199  0.7503973654693364  0.4837558251658956
  0.8904694784486632  0.8769869627148811  0.4849136843294455
  0.8046013574622065  0.7518535986409973  0.4585236564153503
  0.8546463910115406  0.8703243277694118  0.4568984893155358
  0.8821991719848644  0.7451287215604065  0.6155467687575127
  0.8309292245125423  0.8767937078886191  0.6280419947964296
  0.8227267708431857  0.7501338114127197  0.5528085788233977
  0.8228112543439058  0.8758720629372789  0.1395302569774909
  0.8739120721061157  0.8764575188516686  0.5487583862834972
  0.8716888008481034  0.8722588811603066  0.3889370396362614
  0.8020977342429472  0.7495720075232739  0.5757611401778887
  0.8556355715634825  0.8772417078143119  0.5825012448823849
  0.8425561120541113  0.7496777148062382  0.3673895861863581
  0.8920386210764717  0.8806055267376498  0.3679930694719563
  0.8646288022845026  0.7508295228951913  0.6622976939392167
  0.8122247222794965  0.8741518556590651  0.6597926012604175
  0.8218864671306996  0.7535267926229303  0.3939489886754466
  0.8727246738481457  0.7476761185190511  0.1371966058807293
  0.8127083351336054  0.8763950724608485  0.3245231348072460
  0.8625835116423437  0.7415361077424301  0.3289096097956680
  0.8131055590578894  0.6213769321709566  0.9905921273469257
  0.8736152004752624  0.5052162475502038  0.8115082559209843
  0.8226155259684008  0.6230047399722738  0.8061817554230061
  0.8405159596006089  0.7482170537886013  0.1531497590108288
  0.8905139436507917  0.8788806344295048  0.1511446428527223
  0.8046540114017271  0.7511274615981821  0.1245930067587097
  0.8540788225879934  0.8723902694815493  0.1232183486622672
  0.8799922759025585  0.7613803514337972  0.2822067278563952
  0.8314824633475935  0.8706879706807553  0.2902680309407586
  0.8232625336677133  0.7489307987027255  0.2169697750817231
  0.8733844265703874  0.8808444914259804  0.2079298865428720
  0.8219816407512870  0.7498259558385353  0.0584516632936899
  0.8720772021025620  0.8740085629645911  0.0572486312979826
  0.8034023210652443  0.7550042093282278  0.2429355337964634
  0.8554243986786170  0.8678817833581481  0.2492185283679635
  0.8431036957797242  0.7496589035944130  0.0370705992032468
  0.8928153370630131  0.8747380069944390  0.0359914619326315
  0.8921870205490929  0.6262955968921695  0.6994916756729931
  0.8719243626575631  0.6240512408492571  0.0561105990873569
  0.9228978807459550  0.2492520532036704  0.2193529936208418
  0.9219507273366351  0.2520001094671638  0.0586303499055425
  0.9226526273536435  0.6259996681653996  0.8062787047679281
  0.9402265541855280  0.7492746662190568  0.1509405545246924
  0.9906229923978043  0.8746739323579413  0.1522431872778083
  0.9047462867001298  0.7486911553986147  0.1210937572098300
  0.9543238227878105  0.8778668940093224  0.1234570311644353
  0.9814879671066129  0.7579424009806267  0.2882078895669417
  0.9316986088582044  0.8811239005119947  0.2899708808919653
  0.9737068561314590  0.4953474925493731  0.8090621203198471
  0.9224522817779897  0.7498179723150341  0.2201325465152141
  0.9221134516537233  0.7486261390807760  0.0559281114503317
  0.9719001340795265  0.8776032444590688  0.0588452142018099
  0.9008098990975191  0.7500084275875832  0.2298116934250721
  0.9547236063591018  0.8813249573452059  0.2470652860682369
  0.9440816952084581  0.7501478657985230  0.0451237311311731
  0.9924596224886619  0.8752231671999302  0.0344760690529506
  0.9640186630710502  0.7502952843651943  0.3311672870812633
  0.9734168284387251  0.8757770019278165  0.2116354235487789
  0.9130209181304517  0.8763121149741863  0.3229387233476277
  0.9124013614127169  0.6243473586093576  0.9895725716732398
  0.9900277061277755  0.6318541204399269  0.6980823494483920
  0.9220044688972868  0.6235007892647949  0.4698188503569361
  0.9008275233756451  0.5095931134496617  0.3459314905368402
  0.9442584969442934  0.4903379745454546  0.5988882425873041
  0.9404988765804619  0.5001588492121685  0.8220170978319995
  0.9909681463729052  0.6266674361610426  0.8195875240447815
  0.9046689320938045  0.4996236439326451  0.7904990894370991
  0.9540980695395015  0.6267488740937930  0.7913024370142394
  0.9626816187755924  0.4961370000774400  0.9909134312476019
  0.9816608526340092  0.5024610552822176  0.9532485564318953
  0.9229253366431796  0.4998683079337637  0.8849106232222310
  0.9733376855148254  0.6265073366563184  0.8783680992616921
  0.9220676397248799  0.5002043676684047  0.7252675512623952
  0.9714539324050621  0.6292793122311748  0.7355905667957147
  0.9022427216960892  0.4998538388342154  0.9075341144304137
  0.9546469593699176  0.6187171148965670  0.9133820054685421
  0.9436444872873563  0.5000854339810614  0.7117213569540326
  0.9313663860082531  0.6205799111596604  0.9573605218412102
  0.9715692424642020  0.7510284054736730  0.1328512656945689
  0.9227910937379861  0.8719782714031924  0.1398796570233490
  0.9440643073065568  0.7523616441737029  0.2670590078910163
  0.9045324888155036  0.7499515542977649  0.7896575081984339
  0.9544749121063850  0.8779138492165011  0.7900478503909434
  0.9823707226153452  0.7487330822325501  0.9519652327515263
  0.9314928184507844  0.8803720501443509  0.9567732548113471
  0.9226090541570736  0.7500184382706360  0.8847661652124362
  0.9731104585366639  0.8754302895770252  0.8862543637964350
  0.9218956012676681  0.7494489344683769  0.7244725321879203
  0.9904629355188390  0.8746379672687464  0.8194642045159077
  0.9720196290961745  0.8775727124055772  0.7226451421756032
  0.9534555643921699  0.8812268836020812  0.9102881069752716
  0.9430690461460758  0.7503117353503688  0.7023391869522069
  0.9930011667677785  0.8750212486786593  0.7036717653110498
  0.9643404809221752  0.7522399428292774  0.9928975662637470
  0.9127495645447673  0.8730670833257873  0.9916585850123364
  0.9721648434392040  0.7581870847787943  0.8055388212868398
  0.9226848609923095  0.8750797084141677  0.8053019350355815
  0.9020150195155522  0.7499333159858876  0.9070534159752617
  0.9402701269583653  0.7523528289035865  0.8153196477977140
  0.9008105482180674  0.7408924509287304  0.3451243879933900
  0.9220585857648289  0.8748179526513387  0.4697359876517967
  0.9406029814724182  0.7507034492224181  0.4900217648775426
  0.9905035942657092  0.8760996637340627  0.4867233819327926
  0.9047580731724235  0.7532997037866271  0.4622047758465503
  0.9545727261090984  0.8770007215013000  0.4574328923537420
  0.9817727556357062  0.7554812399540292  0.6212622347246630
  0.9326606062144513  0.8758942352191600  0.6203975297748980
  0.9232186902301126  0.7506338909590057  0.5527787188385018
  0.9730966097801387  0.8764193632157108  0.5499156623697408
  0.9225398366002087  0.7497454869774662  0.3937302621603173
  0.9719162066305370  0.8776716273597299  0.3924675314278000
  0.9022957661568907  0.7494850085033037  0.5756967852872097
  0.9531757773834248  0.8749599023619274  0.5789280667068131
  0.9441098491516333  0.7499089217993808  0.3805317020179539
  0.9928729204833645  0.8754893438995131  0.3700894016846724
  0.9629305204387939  0.7495075592527377  0.6597774926124058
  0.9137694353189214  0.8710599207604338  0.6532154805280004
  0.9725769791360127  0.7512687654092407  0.4717615249255424
  0.9731628965956678  0.5080579110709166  0.4732987231960509
  0.9125425122143038  0.6249394922839383  0.6571203764117225
  0.9641158238316827  0.5076608155637730  0.6680298237404380
  0.9930315374283210  0.6296920336909047  0.3774980835769164
  0.9425343015234738  0.2496254331426219  0.3667748361028237
  0.9863460826150589  0.3737954586623576  0.3531119851039338
  0.9645050730350245  0.2406730068630046  0.6620701030495256
  0.9116821748345378  0.3749558204969164  0.6617943206232795
  0.9733428845637317  0.2376598014789844  0.4747418010113463
  0.9227976946044716  0.3767990788465229  0.4729363206317854
  0.9442339771946564  0.2612783010187725  0.5990860138541837
  0.9588901796608257  0.3759990535754184  0.5919099129891804
  0.9403870713025588  0.2473719143275000  0.8216768036279837
  0.9044787910770742  0.2548341373840068  0.7894736506051192
  0.9548426097521964  0.3755114543819168  0.7922499953939863
  0.9819065157763243  0.2481161090847879  0.9551880724489871
  0.9320176232261869  0.3740531393200554  0.9548980386474629
  0.9232265779489534  0.2478474051132543  0.8823179658291282
  0.9729431901861725  0.3736504062271934  0.8875606493762610
  0.9221381056434682  0.2523620063277164  0.7253750064319741
  0.9906358352087151  0.3726576840625956  0.8194974640989006
  0.9029131933938662  0.2500682323192253  0.5779930888488611
  0.9707461391149120  0.3722947916885977  0.4062332894289449
  0.9217920593534581  0.2490508110699519  0.3923642699140770
  0.9719018800756689  0.3746383711081445  0.0579005786338697
  0.9019631802415429  0.2498679201589043  0.2392445804306288
  0.9529521108531576  0.3744434081819303  0.2434432720606171
  0.9430797855996113  0.2499365713146659  0.0366973039791130
  0.9922584824951693  0.3748873990094588  0.0327681009184750
  0.9624379103533420  0.2535603248901602  0.3269502283338628
  0.9133748234493636  0.3710551782909495  0.3198799040655053
  0.9723621744690056  0.2494071878433544  0.1370280802606300
  0.9226806196384326  0.3748071142462928  0.1386561064266377
  0.9404611658970906  0.2466102487957308  0.4817060569243725
  0.9914683428664283  0.3740153098961871  0.4813180857291847
  0.9046573483095866  0.2479780453978036  0.4561777934977109
  0.9534184983652272  0.3756254979870399  0.4600059377235688
  0.9821091083457519  0.2513795712173966  0.6166844772071689
  0.9302889240582473  0.3748657264030054  0.6294160609409548
  0.9228438496973851  0.2509248425395272  0.5496324044852341
  0.9740750145121678  0.3726193173640137  0.5363520163332470
  0.9713618046185460  0.3733007130382080  0.7270440571192527
  0.9733181065911574  0.3737203074529688  0.2167036210520011
  0.9039334454364498  0.2559247180563906  0.9111507454974273
  0.9439391606858113  0.2507379353462471  0.7122672457550058
  0.9735526918956027  0.4995362100786988  0.1406815810303326
  0.9228922357068170  0.6266711793170637  0.1393770645258399
  0.9938404351480813  0.6304908792421571  0.2641140339424965
  0.9403250904372447  0.5057270002522226  0.4823200078338574
  0.9904126999646077  0.6302389487845799  0.4891908055023899
  0.9045827184331564  0.4942093888322127  0.4625031931712206
  0.9547706783605233  0.6238916244963417  0.4575293057956075
  0.9143239650527021  0.6265334453348936  0.3168790407699521
  0.9804022578829359  0.4937804538660598  0.6145751954463594
  0.9228632039784499  0.5007073328261912  0.5528499714167660
  0.9734476045189456  0.6279567335994948  0.5521858769486784
  0.9222073933633405  0.4990290700220598  0.3904482795403861
  0.9720895937883270  0.6229931164950777  0.3914067915267947
  0.9020457385913858  0.5003894393192301  0.5762014506360654
  0.9536929112789084  0.6293719742210260  0.5786971230191233
  0.9430517802324272  0.5000363889231089  0.3684851353316888
  0.9316932537854931  0.6276358938177017  0.6241194343408556
  0.9625749361991123  0.4935708115947854  0.3294273801426337
  0.9924754482555151  0.6253211610989161  0.0329256039930706
  0.9430657447744050  0.4996600605838493  0.0357958038661640
  0.9911740442489122  0.3687034256246217  0.7003493765936899
  0.9627128791285372  0.2511525566352907  0.9904367284551345
  0.9129208839031074  0.3761799991447037  0.9903942290435329
  0.9728663903447905  0.2502168928654625  0.8079270883007172
  0.9229428830090634  0.3762349160268971  0.8072724736352465
  0.9405699867346655  0.4985593885853308  0.1527917541133698
  0.9903234872262183  0.6284435401307467  0.1460956739614435
  0.9047659235963156  0.5010777399141770  0.1215039864379859
  0.9542333261833259  0.6201568785114944  0.1217394121379556
  0.9799509679332269  0.5083010508425015  0.2833900482196860
  0.9326543442983772  0.6197187541609469  0.2860908139249583
  0.9229250681129318  0.4988520830906040  0.2165297211098599
  0.9727645495629945  0.6315894847652952  0.2100728032917017
  0.9221926031473272  0.5007778678056534  0.0583068414266248
  0.9715726896087123  0.6222912972554270  0.0558326352368936
  0.9016359815863335  0.4992308730291780  0.2324497715700160
  0.9545731850314759  0.6190104794317304  0.2476743259015009
  0.9523810011043892  0.3750642040950831  0.9097105186630285
  0.4812478851113887  0.0058196455002580  0.9567354964856019
  0.8222555860011653  0.5004983808190681  0.0631063711332415
  0.8241270707953169  0.4971618847512614  0.2084352645231142
  0.7023305759923829  0.4987856224092829  0.2430028265284359
  0.7526602761778084  0.6247693120378365  0.2449831359358854
  0.7429302834907626  0.5001062257818218  0.0357921576461103
  0.7931046357160308  0.6255002024133749  0.0356619678423739
  0.7618588094568575  0.5006568981805798  0.3280826176954597
  0.7128327211091438  0.6221026141172473  0.3238534623654034
  0.7728787570419012  0.5024517137807980  0.1401072881416474
  0.7718866086291668  0.6248997129929735  0.0543454502920436
  0.7223135551465434  0.6250848129754744  0.1384211823933000
  0.7406545216149010  0.5000965751402423  0.4868497256119647
  0.7904994081210598  0.6244452855777133  0.4893773578451777
  0.7048039537300652  0.5009527872695154  0.4571020342291816
  0.7545990954271331  0.6247756931009354  0.4576129070803098
  0.7812759970799101  0.5039722873196437  0.6248581770018431
  0.7321149605933522  0.6248419410552959  0.6220457334559877
  0.7230384290315438  0.4998323343508482  0.5523691003538095
  0.7938853408471566  0.6184634211108716  0.2649524150680397
  0.7729897561078801  0.6252598477140512  0.5506055395658975
  0.7220994038260595  0.4973034958782446  0.0602058765018993
  0.7229463452954825  0.5016586700231364  0.2196610059757847
  0.7221034747773142  0.2548405100830909  0.7301187634803200
  0.7721469464490773  0.3751210854769884  0.7220989428336791
  0.7018854650450103  0.2504199734689279  0.9076863090626585
  0.7524128515254912  0.3741777086319421  0.9095380605835139
  0.7423640928917494  0.2496159741264134  0.7004722854947063
  0.7940627342625923  0.3743614652990159  0.7151032527631775
  0.7621999959248644  0.2511385889274059  0.9923052579236318
  0.7726046490867241  0.6256480283442267  0.2177504305226907
  0.7128442938252632  0.3763398982163664  0.9891084464703780
  0.7232033396871036  0.3768161401263632  0.8088097748865866
  0.7407040736979259  0.5020123935989483  0.1534919935434706
  0.7902808383904029  0.6278364372872620  0.1478995386264774
  0.7048392835431417  0.4950118458747105  0.1236246224038823
  0.7545361899669002  0.6247436601611103  0.1229231998156009
  0.7803179799214602  0.4985244446163550  0.2941203352777026
  0.7322110911458978  0.6247829457395601  0.2902903327166486
  0.7723654534042431  0.2521034246253385  0.8045221213552988
  0.7220506410346812  0.5010090487921188  0.3934143314561422
  0.7720936146913523  0.6243776234606543  0.3923360564112701
  0.7026137053768903  0.5008655899730927  0.5769380084487762
  0.7626827367148977  0.4979222625229849  0.9908617857765349
  0.7135616082135865  0.6176377062493718  0.9890397016108157
  0.7720990378672343  0.4988316169376710  0.8031856893166077
  0.7230464639192704  0.6213705999016425  0.8073122630606109
  0.7407820754998459  0.7494019064416372  0.1551149521763024
  0.7903961151413442  0.8769729214253795  0.1556753969251259
  0.7049236876718744  0.7454239963211435  0.1311936706924628
  0.7926626446470227  0.6248274135646786  0.7034933453207799
  0.7545127770565709  0.8739726769392805  0.1242333962711787
  0.7322942199690161  0.8754870230824511  0.2888667164808582
  0.7233347467490350  0.7490109590542233  0.2216500570893332
  0.7730486600288445  0.8761886966939617  0.2172062113917395
  0.7226542495188818  0.7478868393624289  0.0606394640001637
  0.7721416661429483  0.8742506161472671  0.0579294688807472
  0.7025747214606720  0.7491620310425197  0.2442262557551172
  0.7530454644737369  0.8748071185774360  0.2453965408886440
  0.7813348601073790  0.7535194966090280  0.2905581716979772
  0.7430396852448198  0.5000797941179049  0.7032241459179123
  0.7532070498662592  0.6246215508725839  0.9117160755024200
  0.7020668404496886  0.4991993989717112  0.9085958280438255
  0.7527746912007596  0.6254147553022968  0.5774600000933588
  0.7427125458704403  0.4997273616391763  0.3695393192168946
  0.7933938352202894  0.6251132184494447  0.3783302529152481
  0.7623188042042619  0.5001989200906081  0.6586951166725071
  0.7128794226005204  0.6232324796672389  0.6571409577250945
  0.7726618659134897  0.4978062990899219  0.4732381170432655
  0.7232345710261865  0.6256518109535660  0.4747660854960277
  0.7406720664109248  0.5004577618772400  0.8199266861438249
  0.7904481390399398  0.6242401975264849  0.8195825521285706
  0.7048060507235907  0.4991940983782658  0.7904477776727520
  0.7544873004497242  0.6259656460583615  0.7898044865103557
  0.7817876608750246  0.5044617931273706  0.9544260290673344
  0.7324417163925017  0.6258190064548904  0.9540677560130579
  0.7229563113835861  0.4992267491434250  0.8878471728696750
  0.7730312828676369  0.6245606263347701  0.8814630291515149
  0.7221209347625897  0.4995706640714965  0.7250225535575128
  0.7719291340136883  0.6252380516696926  0.7243137129988308
  0.7731140570604158  0.3769523411521025  0.8855005068211117
  0.7230866844765358  0.2508284290133090  0.8874563781924235
  0.7322876407495013  0.3741324065547589  0.9551464148721519
  0.7804039630468769  0.2479188081078519  0.9519469961316048
  0.7544002707669385  0.1250689491258273  0.7894151561264054
  0.7810767587125226  0.0029754000190511  0.9564234599534158
  0.7327143362443678  0.1258188129523475  0.9525036727663432
  0.7230752417770645 -0.0000346818170739  0.8850593596124589
  0.7730598454985441  0.1244386636966649  0.8808921189370535
  0.7218134822409609  0.0002466612644225  0.7250096775200138
  0.7717855965499332  0.1248758667955975  0.7247114699715824
  0.7050609738061314  0.0007108805133180  0.7869015019777689
  0.7022431359052322  0.0069803092530420  0.8978885100648296
  0.7429987602756092  0.0001291904445124  0.7030138522619717
  0.7923518958776701  0.1261485525839532  0.7017901326386767
  0.7624707475318254  0.0004158173860964  0.9934018739266803
  0.7137799411126377  0.1311711953404434  0.9869243595787732
  0.7727380953196682 -0.0021883647159664  0.8054831001844774
  0.7230224290749978  0.1260904665696191  0.8068706092398380
  0.7407388492448139  0.2474225607579691  0.1533731099702908
  0.7529609741063328  0.1263121153182004  0.9110663959826605
  0.7902550840997117  0.1246742114485983  0.8185197732419285
  0.7406038689607011 -0.0003836589369731  0.8198106439650747
  0.7218015320899228  0.1302303656220221  0.4683914634800364
  0.7411462132701924  0.0000043668212639  0.4857538124817804
  0.7905997580474291  0.1238413352110768  0.4866474683347312
  0.7040988740366743 -0.0000536227400678  0.4608399892745825
  0.7546001519264438  0.1264441792835231  0.4565448464592882
  0.7817775296198322  0.0007598735850972  0.6207796470223079
  0.7324426460130671  0.1224638937716430  0.6180580469018040
  0.7242259464278882 -0.0007850428281036  0.5390528763261353
  0.7729218612543040  0.1241840311848877  0.5496709084606842
  0.7221254403634043 -0.0015353629370944  0.3971344272770310
  0.7720872141462070  0.1255925153462710  0.3917876605474746
  0.7089311944636835  0.0016273061197381  0.5918776281451023
  0.7527663064026975  0.1262611024639147  0.5771779701512794
  0.7429100510276354 -0.0000147520692743  0.3696522430959931
  0.7928293115674423  0.1261923338484243  0.3693480275559710
  0.7627763663145116  0.0010288054642612  0.6573947586276733
  0.7146136644761333  0.1330695122637039  0.6624963936967068
  0.7724573213351095 -0.0008478057125414  0.4711762069051312
  0.7906517183182695  0.3732259765499440  0.1478768924768924
  0.7431832620687611  0.7499151629626079  0.0366742331257669
  0.7046483836175120  0.2564485576514089  0.1238410661722917
  0.7813881152357102  0.2464738488271297  0.2907160397530888
  0.7725005056715671  0.3754961452004784  0.5525441551619998
  0.7222024158543302  0.2533068319590617  0.3921309907603779
  0.7719744142838040  0.3748820007741274  0.3886461029697957
  0.7031802675377291  0.2545610216024584  0.5755670899644917
  0.7521723387986328  0.3740545542137399  0.5765820260967809
  0.7430784345616673  0.2498030351553179  0.3702553119910948
  0.7938546459108774  0.3746440965786954  0.3779047246379601
  0.7233188232875458  0.2501046556777027  0.5531754190981151
  0.7621537573216791  0.2499783379722699  0.6592180681933365
  0.7730334794214129  0.2520160802622214  0.4741254446992614
  0.7229336231496567  0.3754626480066638  0.4736869429323473
  0.7937848043677794  0.3738569528664365  0.6017753821344469
  0.7408030425635340  0.2493237216851819  0.8214803600141507
  0.7900148588526921  0.3775606586537546  0.8217114623500966
  0.7048743322097764  0.2526287647753412  0.7918945651945837
  0.7545460102027061  0.3741094316233040  0.7902418464295617
  0.7131088179782693  0.3769590101359544  0.6568629962121739
  0.7323189245452515  0.3746388530704685  0.6217054261344098
  0.7811371872671760  0.2453627315370106  0.6249661792287717
  0.7545013537654729  0.3743629973392632  0.4562969427215569
  0.7320825325835913  0.3740779336067981  0.2881481025742375
  0.7231907724581337  0.2479870928823389  0.2170865721782285
  0.7726987368979377  0.3747946029321005  0.2158486349303531
  0.7221610367762769  0.2531356893119694  0.0608763868010741
  0.7714907400010822  0.3748244904532053  0.0603674009994976
  0.7034942670428519  0.2579492913226836  0.2428001315914802
  0.7527290792628015  0.3749754519018537  0.2442878158746856
  0.7425306811557278  0.2498985777956056  0.0337482825177779
  0.7909219726717879  0.3816288546833927  0.0314826253959398
  0.7624454526411341  0.2495588012946763  0.3256746876128798
  0.7129569499739608  0.3790600987836213  0.3239739595899987
  0.7735556323884017  0.2493304414670795  0.1417487437628705
  0.7238656330830880  0.3758724789997106  0.1438021069642690
  0.7940284654201234  0.3790348973335281  0.2652638412848373
  0.7406127878562071  0.2486858656969412  0.4881054383474877
  0.7903332255705208  0.3747200466964305  0.4851978183300882
  0.7048297141951254  0.2543467385916935  0.4580794572507278
  0.7544014342579219  0.3742684512287500  0.1233126410316377
  0.8734047645859693  0.6249217776982141  0.2177008033640064
  0.7934898182527825  0.8754401349282602  0.0455299383747830
  0.7133025291191941  0.8730282753447102  0.3254442965550827
  0.8326850022737821  0.3778884549758353  0.2852832626794108
  0.8235429639654214  0.2523520372382575  0.2170154268106815
  0.8731984369000879  0.3708969412198220  0.2120204951169345
  0.8226351237779725  0.2482525468597152  0.0573033089791217
  0.8721769237016236  0.3759638780142847  0.0555123161356451
  0.8040805637973532  0.2441837174858266  0.2469880197955173
  0.8533663871323467  0.3764094875428757  0.2451088545865472
  0.8816652220321736  0.2493791109023146  0.2867058236491954
  0.8431411994314931  0.2502059730151483  0.0352669726871233
  0.8628517879807356  0.2502351259379561  0.3257254696880197
  0.8146099676886749  0.3696274871273908  0.3283060531077349
  0.8718912694053499  0.2480709103938974  0.1335135095118465
  0.8203970235520914  0.3694608842389241  0.1295308723035145
  0.8012313620660645  0.2518154744500933  0.0113666725447865
  0.8406507039907789  0.2563627174868213  0.4823565457533719
  0.8906155718730643  0.3663659566021970  0.4859436288701184
  0.8933267566108281  0.3734671687813663  0.0367423079650743
  0.8045201377556496  0.2462471915531844  0.4567346027166814
  0.8544203752966810  0.3763008199986810  0.1222614179426763
  0.8904048417513478  0.3732458913067113  0.1514059681363605
  0.8813644223868844 -0.0053263034257005  0.9573062607650373
  0.8326614246897562  0.1267717699158775  0.9533868025152595
  0.8228944578541650 -0.0011692344276978  0.8866660708728764
  0.8724652349821086  0.1249879005492246  0.8885427132004864
  0.8220332397207255  0.0000442332366885  0.7252993727696402
  0.8713078672585718  0.1291831494348001  0.7254615717048729
  0.8025867733863309  0.0062470849100968  0.9062126252330963
  0.8045345372684763  0.2442633555701130  0.1296730234609776
  0.8521418417688709  0.1256469883526690  0.9102725050982060
  0.8917448130501002  0.1315360394312647  0.7013116694163934
  0.8624318387686739 -0.0000661941105822  0.9918279868778814
  0.8135965997045177  0.1218003000049654  0.9862856855921248
  0.8737862145257030  0.0062512894963311  0.8103372115308727
  0.8230187577157666  0.1236641575970069  0.8085785377039499
  0.8938390582898993  0.1265233567746899  0.9340889348202390
  0.8405630537713626  0.2550843628402641  0.1533933467156181
  0.8434422471079217 -0.0006713487497801  0.7121562451253941
  0.8546849437741127  0.3830459067259896  0.4561900162921516
  0.8823614141871983  0.2462493393112323  0.6174098861699605
  0.8320398450700648  0.3786009616637661  0.6223331336245307
  0.8221022260372945  0.2481670235889265  0.7274196031628565
  0.8717654772373356  0.3793715257590781  0.7340581115591280
  0.8013782707379586  0.2499355615018392  0.8975239850269976
  0.8527024944505650  0.3744067663387022  0.9107668227883867
  0.8439482375522231  0.2494676591586295  0.7128932138889975
  0.8915412156132044  0.3743047462853971  0.6990273501901960
  0.8622880953562988  0.2503781294663655  0.9910437118108654
  0.8729000020954170  0.3759018291827241  0.8826400460463538
  0.8138023160876852  0.3811582412902548  0.9868078097788029
  0.8225826110890047  0.3769669002723500  0.8061259594256509
  0.8409922363276887  0.4986566520959889  0.1538264697321048
  0.8903304348456061  0.6236070330069836  0.1503206788419492
  0.8041325965485623  0.5019898970652289  0.1261479182079286
  0.8545554004637252  0.6244356167612650  0.1229324560342231
  0.8803423069211581  0.4911005657398280  0.2820966407157672
  0.8324029027317964  0.6209391595937491  0.2835446499006965
  0.8733156434262715  0.2473770935596113  0.8101939303607887
  0.8229078849635665  0.2509286081003643  0.8863503233915890
  0.8327277859262338  0.3730313283132344  0.9536045497561232
  0.8814248116793906  0.2563585222765318  0.9581816277658834
  0.8231021777488712  0.2510922776223215  0.5483564816548109
  0.8728322670124533  0.3729784764664394  0.5547408764044707
  0.8218167387520177  0.2459402935942574  0.3938544542634278
  0.8719875947699784  0.3783261494084886  0.3888510063096994
  0.8039417287145072  0.2440651330110207  0.5786288168413311
  0.8526724690201484  0.3795944713007846  0.5750742041056184
  0.8429519539132042  0.2502917662847498  0.3684096266366961
  0.8922040651716919  0.3695126418179079  0.3683262841374657
  0.8646414439604477  0.2628582560424036  0.6612192460950974
  0.8141448573873222  0.3728284749042535  0.6623727390277677
  0.8710083645707908  0.2584869294285389  0.4658291651375681
  0.8221946660611557  0.3744745417688064  0.4710663174896505
  0.8443686496863287  0.2380515496903167  0.5999110641914366
  0.8405478463194060  0.2510927659617611  0.8232589376742149
  0.8908527442644075  0.3756337959145382  0.8203044899252629
  0.8049074933132824  0.2461087038219462  0.7881584325361106
  0.8544288209049102  0.3772989036922759  0.7909947078119937
  0.8547272037865531  0.1237893764175858  0.7915406679243723
  0.8044805331254878  0.0013876248781539  0.7906084437913147
  0.8905974797505852  0.1271458473685136  0.8160451723568936
  0.8402945609743007 -0.0018726269455594  0.8223964905606744
  0.7408288778539913  0.7506571447617144  0.8203332753397344
  0.7902263399315220  0.8751221842477781  0.8142762508267487
  0.7047663001730837  0.7463765803493122  0.7884657696165548
  0.7543946638036145  0.8751897458920489  0.7890718781473626
  0.7811817783942733  0.7446369491295661  0.9569226804731171
  0.7331328476342928  0.8742304074520589  0.9514888809916877
  0.7232566420421427  0.7498696651870189  0.8826584340607797
  0.7213971190291540  0.8682472133374225  0.4671720606850311
  0.7726049053772631  0.8744158730261160  0.8834721937903324
  0.7716535860685936  0.8750737694445905  0.7220141701323081
  0.7031189465035846  0.7427450934984103  0.9024527811739628
  0.7529730972241452  0.8751397167461071  0.9113036590329262
  0.7427142310914089  0.7504910832899515  0.7018729706926723
  0.7921921599984844  0.8748495413719624  0.6998573744604593
  0.7624480914886009  0.7510052209814075  0.9922778587379358
  0.7151928332799692  0.8764500318813059  0.9886101735779930
  0.7221855540204035  0.7458683498914738  0.7297858963917498
  0.7727034753221786  0.7507323864533477  0.4725828935234566
  0.7142726726969041  0.8675908588928741  0.6623475644498266
  0.7625980216295093  0.7492604070419895  0.6575191093337966
  0.7727149154520883  0.7489445418862802  0.1390562963755205
  0.7224407893999917  0.8722201134309345  0.1382059152898903
  0.7011136996673415  0.7558857587202938  0.0139581789339987
  0.7405376053366735  0.7516487945893964  0.4868867607297473
  0.7905372782593783  0.8763039574383708  0.4864679458329221
  0.7046871407098085  0.7441699470642757  0.4575887551405783
  0.7546037537207150  0.8743103034245785  0.4569641209987975
  0.7817600414968680  0.7490803175353821  0.6216612807792542
  0.7322444119685674  0.8788255708262575  0.6194003696379159
  0.7230839268853121  0.7510281336912299  0.5529378227531129
  0.7730272353034506  0.8749860841378094  0.5516020768885965
  0.7223051956968883  0.7465711998108736  0.3906434905094335
  0.7720762359323771  0.8749516357032003  0.3906466277371857
  0.7027018376377892  0.7449530447753132  0.5743712632037650
  0.7529581573497390  0.8746106100640153  0.5776293008404859
  0.7432181678377131  0.7501620083250901  0.3707478806072193
  0.7928226666767816  0.8744749150696579  0.3702031654617191
  0.7727165674631251  0.7516291460932707  0.8052873186283103
  0.7625769036307692  0.7491579628832544  0.3265446647067796
  0.7225782338340975  0.8757480410317757  0.8056240364052779
  0.8404326400276180 -0.0002559028848314  0.1486586726363542
  0.8539146698128856  0.1262519756810131  0.4595810672023039
  0.8800054990366010  0.0076947504096342  0.6165640867573179
  0.8302485364986293  0.1249249694785087  0.6286453351512753
  0.8227506765541954 -0.0010055269616403  0.5512225629853017
  0.8740909697319156  0.1274882663068176  0.5372295453109470
  0.8221396807397678 -0.0001388374897390  0.3916510709315231
  0.8717095630324432  0.1276929428339749  0.3967160090417181
  0.8046264263110409  0.0010842571345443  0.4578556869196997
  0.8023798850373473  0.0006996057411191  0.5765865312971226
  0.8440270853549211 -0.0000896581203762  0.3784256984375250
  0.8920375271283186  0.1250975938245078  0.3665394417089951
  0.8638750179374802 -0.0061608830858337  0.6732535103064982
  0.8118580503496750  0.1255006531233369  0.6627768889380612
  0.8718303131585975 -0.0041479738814446  0.4666507661810091
  0.8235219061474680  0.1226593430117562  0.4757398648127382
  0.8441696264755346  0.0069803791212425  0.5999485758363189
  0.8589270212405543  0.1227968409632304  0.5930809551582812
  0.8910295610299552  0.1277744807597980  0.4843349675450803
  0.8404401598394591 -0.0053915300059757  0.4848207503912079
  0.8441838772221553 -0.0025425709536036  0.2663553546165657
  0.8901280175296995  0.1228921552087574  0.1543268906631409
  0.8047105781519923  0.0008879255082481  0.1245578168080889
  0.8541085071489306  0.1275794257176566  0.1237408530055820
  0.8822268332226513 -0.0002827626276262  0.2843768777108657
  0.8314852360481109  0.1291870128270931  0.2903287374206190
  0.8228048708682092 -0.0000414156696907  0.2183609688187677
  0.8732038795587291  0.1241509092013945  0.2147598215758840
  0.8217274779705529  0.0009206355389977  0.0600375989237898
  0.8724736327281349  0.1256843092193884  0.0527758827204214
  0.8022980376708173 -0.0001699399886975  0.2426244773928129
  0.8539297746667907  0.1307569849610955  0.2447449823720489
  0.8426734290535832 -0.0004672263577607  0.0346189883620190
  0.8943759557449159  0.1257177174754088  0.0479788478008746
  0.8644603384580540  0.0040160267377518  0.3278068212821538
  0.8126064064865111  0.1235175272885119  0.3258408559262393
  0.8706266292624738  0.0043165216715126  0.1289945613640544
  0.8229488787340637  0.1253235675060334  0.1397544173300858
  0.7937580777821603  0.8735214851307896  0.9327053885241862
  0.4543885748580149  0.1230183408777410  0.7898577213710630
  0.4939129793307962  0.8757364002839814  0.9328873195345768
  0.4904485551274638  0.1269532666472068  0.8217596267830071
  0.0933557916757159  0.8752686652474776  0.5961580598885292
  0.0404638965609643  0.7486702838417478  0.8198324621770350
  0.0902817736718511  0.8736567610844398  0.8218095397931812
  0.0044931967605108  0.7513237860122139  0.7908816797172142
  0.0542388487805294  0.8743693024734430  0.7905069300300227
  0.0819301936916717  0.7515217213814586  0.9557533250274335
  0.0320631168703394  0.8747076894814433  0.9551081150219918
  0.0229235404010352  0.7498789539160964  0.8841112776050974
  0.0727872872853742  0.8737629949844292  0.8840365665344072
  0.0219341142115708  0.7512842694399519  0.7286013502706326
  0.0717512640415902  0.8739861162889223  0.7273289546832611
  0.2219780165802422  0.3773055049548231  0.8038375445872591
  0.2735886139756528  0.2553048229385247  0.8110089189845151
  0.2405056168320182  0.4979151529557916  0.1529927001289240
  0.2128352542289102  0.3768942089592416  0.9892521656808728
  0.2920712135743562  0.3804657888740515  0.7035762321439653
  0.2423072252197693  0.2501070023419876  0.7017354645808271
  0.2522411052263426  0.3749921479264033  0.9102577111344130
  0.2025119386370967  0.2499384668207397  0.9094575085326219
  0.2715525535089625  0.3726919665698948  0.7241810019975087
  0.2218230499554585  0.2495242785359564  0.7272423442218231
  0.2726264115745731  0.3765912681548654  0.8874634854476565
  0.0025505743011082  0.7506908117101729  0.9086530472352383
  0.2228206588644125  0.2517551716422030  0.8825809420343173
  0.2319876704932315  0.3732255396085138  0.9555769456618957
  0.2817242121951325  0.2496500067533671  0.9558417028323871
  0.2543384879339236  0.3723320118170257  0.7904461885726433
  0.2044167452961127  0.2488033343334130  0.7906608521248327
  0.2624824817082550  0.2518963222763321  0.9911094631586953
  0.2903609561641922  0.6236437112494807  0.1511319642988083
  0.2042570638420272  0.5007662140133851  0.1237313207693543
  0.2540611108096443  0.6235456008501639  0.1225928366757413
  0.2312076806464288  0.6194180916863367  0.6246934128675812
  0.2808134583995819  0.4919109277534010  0.6225058490176013
  0.2539317675319342  0.6236531631928985  0.4551423361671406
  0.2044832175936758  0.5022078292647832  0.4581846182429931
  0.2900300598510466  0.6224648073127458  0.4799099570149065
  0.2404254669982137  0.4976184263698423  0.4870490579013770
  0.0720186056752618  0.8760588489232237  0.3835456975145177
  0.0021681041091309  0.7503979082898355  0.5752884830053742
  0.0513995916423470  0.8746672006035042  0.5750338894994557
  0.0430524491779170  0.7507270464705480  0.3710524526967003
  0.0934555495203731  0.8745212202796250  0.3685976708354613
  0.0622132467021010  0.7526625678436704  0.6584176176545281
  0.0130100285591937  0.8739980679100503  0.6567263448934857
  0.0728355079528343  0.7619338830704381  0.4730007335973865
  0.0229059690490033  0.8737870513206883  0.4745210707439201
  0.2227159459659475  0.6284969863403672  0.1395427963185188
  0.2725375729167038  0.4955535906661492  0.1382819426639930
  0.2125829674745497  0.6264352803471910  0.3251626309454242
  0.2624836419970610  0.4955527828473325  0.3241217288361531
  0.2918053952551314  0.6248501159497520  0.0332881450375727
  0.2426448637573971  0.4996530763951097  0.0354103153355814
  0.2543563024372487  0.6189233414093233  0.2460260273068948
  0.2038527801416117  0.5060401006131925  0.2437204582534498
  0.2715654995118243  0.6229033796115023  0.0596586709858453
  0.2219564430978822  0.4997073709890510  0.0611716200843008
  0.2731417792117268  0.6223556539645532  0.2119281374621788
  0.2230774369984421  0.4977248262591826  0.2129961668775867
  0.2311377964742988  0.6182820566426560  0.2890537821018298
  0.2815163798330939  0.4978738637408212  0.2864425650959389
  0.2902150101723179  0.3782453159750944  0.8200681152819496
  0.2228644423339638  0.4990529203798603  0.5498800577967861
  0.2403307133448138  0.2519646312990361  0.8202226862098302
  0.0423696679276884  0.7498346028620584  0.7007109737920122
  0.1044922305036430 -0.0062750218059120  0.2446691962424304
  0.1549405952066819  0.1192210624505634  0.2483495374264273
  0.1427378251641381 -0.0001752119134740  0.0362593857280845
  0.2215044029378433  0.3722664572405388  0.1354175444933276
  0.2722362482759983  0.2514120730792422  0.1379833449802995
  0.2143467026157258  0.3751275609198112  0.3265968559891217
  0.2623890592461778  0.2513549726695567  0.3226423082794672
  0.2927024806797552  0.3738301911509507  0.0360559146535804
  0.2432495617999976  0.2496352114060341  0.0375896636374235
  0.2523711116359749  0.3745852039749817  0.2426708107862018
  0.2036306545686901  0.2438046175211504  0.2440447294851935
  0.2718135500061371  0.3756868146917764  0.0561859411162413
  0.2220915807238773  0.2505605771304337  0.0563570241696933
  0.1719687046402031  0.1248960011686305  0.0578043701907844
  0.2726939148968860  0.3725054989682794  0.2182193092147864
  0.2323460066805591  0.3755838250969298  0.2863092035247149
  0.2817101889634897  0.2489615522497056  0.2884403120681337
  0.1927033899851418  0.1248266928031261  0.0364495481065383
  0.1628497907762514 -0.0049249243329434  0.3252527563224921
  0.1138696166688514  0.1273254011424268  0.3284760334886492
  0.1723781071265167 -0.0028726466467631  0.1369978888293169
  0.1216560678012670  0.1312366507302306  0.1351302472078431
  0.2543405993098661  0.3750016969326703  0.1231621864365152
  0.2043268019093841  0.2492535549398511  0.1242071424941514
  0.2902502960273315  0.3731201845108032  0.1524594912852724
  0.2401799567833154  0.2507641506993262  0.1527853174161967
  0.2438343384300620  0.0001017750036949  0.9347750317447588
  0.2226307820206390  0.1232089022628028  0.8061445407755188
  0.2230576842415835  0.2503671547589179  0.2171327560420218
  0.1220931722211324 -0.0005661002561194  0.0623163101408184
  0.1733407604048004  0.1245782971830027  0.2119349330633986
  0.1234074638524524  0.0007826560492592  0.2111309223688861
  0.0925383880399197  0.8749873650001891  0.7087879868933169
  0.0625124484416711  0.7527396106043176  0.9896629896814632
  0.0129931141221789  0.8745410973035187  0.9900900344311604
  0.0721541526401656  0.7486030190472448  0.8051595243927481
  0.0226592546740610  0.8769197153552515  0.8067438552705166
  0.2221300863739838  0.3736111385742282  0.4711676091917163
  0.2719539758622577  0.2473507906185770  0.4689668160498329
  0.2129694882062930  0.3730854467746494  0.6564042991151612
  0.1407627791816003  0.0012632807211494  0.1532251862587142
  0.1904717609942847  0.1246337656852656  0.1525795679026808
  0.2619723208470347  0.2466930326693597  0.6603694229702832
  0.1044536160577607 -0.0022065997527677  0.1231984211199776
  0.2924068583053798  0.3749562979841821  0.3678601810439574
  0.2427932879237922  0.2498010567476296  0.3692872287130994
  0.2532695557382834  0.3744931638406218  0.5795314202154266
  0.2020737158982455  0.2497255107394523  0.5748205100037549
  0.2718030362436205  0.3728041588020075  0.3911790594587357
  0.2219210932536521  0.2482086159075581  0.3926670146521812
  0.2730966238938136  0.3757253496133159  0.5447513239883015
  0.2227818569399717  0.2503742507400428  0.5531630848708062
  0.2320189736466944  0.3764274437819212  0.6211734284955180
  0.2799265899933851  0.2610742057547342  0.6195798686638386
  0.2541048714114585  0.3738915948212020  0.4562922322179965
  0.2045356100205109  0.2482535619003102  0.4584235732381134
  0.2902321142064879  0.3742520589407087  0.4860528250580664
  0.2403255231156638  0.2512635675326318  0.4869306472437299
  0.1543209981420519  0.1245397794526368  0.1231748882665209
  0.1818413211337588  0.0022656147482044  0.2878946080346464
  0.1317490666080260  0.1174840613034710  0.2892587529077272
  0.0524468898754264  0.8755249002821345  0.9097561010871126
  0.2729155035927913  0.0017417095535734  0.8114209912681901
  0.2725007465856396  0.6214825591538589  0.5455663487074351
  0.2711235802522106  0.6225484399757049  0.3889600431323569
  0.2123945475968826  0.8720770687294790  0.6587267135331399
  0.2638458326075824  0.7518660674272362  0.6670930031969532
  0.2901845161818594  0.8814265843284254  0.3641640985709469
  0.2433587098875294  0.7503439085601973  0.3766870817455442
  0.2550637848888924  0.8810497157476281  0.5820743977573617
  0.2024259044344215  0.7494207645264135  0.5768147139195330
  0.2712853591330604  0.8775121711682220  0.3988510733881796
  0.0628666179555812  0.4974117945552796  0.9914321665932538
  0.0129999468305826  0.6267103368207518  0.9894122407356277
  0.2218497726098741  0.7509252763970763  0.3905088264345146
  0.2734809442577720  0.8740065713955125  0.5414530465671268
  0.2226091882326372  0.7496376910262683  0.5520752189836436
  0.2310733914141286  0.8810089010058576  0.6237602595647270
  0.2725465201433142  0.7444125079041686  0.4704404937365749
  0.2801941068480177  0.7497165317647015  0.6142050665335370
  0.2044250653098603  0.7495855516218569  0.4576543594927496
  0.2905958056201591  0.8753469386880176  0.4853433137098199
  0.2400636312940390  0.7494428744347839  0.4848561170455535
  0.0737123336723375  0.5097450766545548  0.8114110950489339
  0.2437943178742569  0.7491669357382514  0.2653387164459114
  0.0008671583849189  0.5032933864983343  0.6804335041368096
  0.2224272167844610  0.8718044973357854  0.1390991826432585
  0.0406309400598995  0.7529514577111831  0.1532641042371164
  0.0905450993491180  0.8764486394830817  0.1522704624336851
  0.0043742156499732  0.7511970874514634  0.1233939211005356
  0.0544457621561762  0.8752939390573028  0.1228573197745303
  0.0810720165062933  0.7562066630899326  0.2894500091176966
  0.2719432216132523  0.7497483293546067  0.1370292321564287
  0.2539633089508187  0.8760474272292150  0.4575265841074279
  0.2224815180632504  0.8727844357839130  0.4725744342344337
  0.0924484573650983  0.6289934330905202  0.7044116031441633
  0.0432701175180099  0.5003863820744260  0.7055263565802625
  0.2733316935520567  0.7460186899735769  0.8100011707977767
  0.2138216512285748  0.8779537323190696  0.9945391364098456
  0.2626491740199428  0.7465703302191313  0.9918609887781218
  0.2872133091782732  0.8782253725909300  0.6915135420491749
  0.2432528839837954  0.7500095849281222  0.7129863128849165
  0.2540983694106341  0.8689773982148370  0.9140036701816840
  0.2039741373185987  0.7434723244027933  0.9106739117728556
  0.2703536201406258  0.8785482790547572  0.7355317872406567
  0.2217141250934327  0.7496141089971038  0.7274208320233524
  0.2729510027461795  0.8744298201368370  0.8818377294597903
  0.2229946829161234  0.7493796325351074  0.8795190988935937
  0.2315945830243040  0.8685612882298958  0.9551284874652799
  0.2815813403871733  0.7495933327952126  0.9542970085885178
  0.2538154196704264  0.8767683959105202  0.7924044201407952
  0.0904569449116350  0.6298725100076262  0.8200276152585625
  0.0046868948856476  0.4989599198555201  0.7970669708479611
  0.0544933310743359  0.6248429591582084  0.7910713753889823
  0.0818061918977903  0.5005091881963496  0.9530686522494171
  0.0321424994833708  0.6263017831227086  0.9550744263742454
  0.0231397112923598  0.5001256311784585  0.8884680301582062
  0.2042252628356921  0.7486885973188531  0.7886849711840538
  0.2905708301719440  0.8753043954289176  0.8183284326433684
  0.2402615059396632  0.7496781701512015  0.8222105435816375
  0.0727481489997643  0.6279093005194313  0.8880442389410484
  0.2439247241512543  0.7518735673431407  0.6015647869855154
  0.0224114537408369  0.5003006413003994  0.7248896958707010
  0.0718726873386410  0.6259568481040382  0.7236773284274385
  0.0023500450915330  0.4997118701980993  0.9097406920253533
  0.0525431293919355  0.6250217645809552  0.9112466930420404
  0.2123239687161991  0.8763078425529811  0.3250588513595218
  0.2218632048807271  0.5014916046946206  0.3940096747332018
  0.2637944188530546  0.7537496705022524  0.3304385925328623
  0.2430571674066121  0.7500390320775930  0.0359048925726477
  0.2227474860925620  0.4984607109363223  0.8873692551141086
  0.2318715414880445  0.6263428827291837  0.9541644687427816
  0.2818853062089660  0.4999105839800559  0.9554030964726374
  0.0132395355755871  0.8803671698561746  0.3239313226070373
  0.0728567262650540  0.7474198163237658  0.1383868218231839
  0.0222485725079576  0.8790762533925603  0.1365956810645642
  0.2544191473996792  0.6242278597458025  0.7917141588940793
  0.2045184260662523  0.5004956136975988  0.7912099536432757
  0.2901234839282796  0.6191999812528040  0.8240768753894883
  0.2401794118172207  0.4983192833650452  0.8197375270025294
  0.2935844134635552  0.6221959382730811  0.5986324663493934
  0.0404188710079265  0.7480536834883000  0.4886181353986269
  0.0906167130469722  0.8746650218106634  0.4795663730931965
  0.2727769762297225  0.6227614458354687  0.8872487447818247
  0.2225642896690899  0.6267189481625239  0.4729895303394077
  0.2123077865723979  0.6271996051261360  0.6592684337516035
  0.2622478595224701  0.4995285808345741  0.6606353592069421
  0.2912853175657474  0.6183057412193935  0.3649550874066751
  0.2428848671841426  0.4998785629100805  0.3696419414841434
  0.2537753042866709  0.6197496995202447  0.5791965451353444
  0.0047784519885281  0.7545009568008885  0.4589862433633015
  0.0543928308548527  0.8755315233919416  0.4565802234909323
  0.0812785576463371  0.7415059931131559  0.6238430523903933
  0.0321254866404794  0.8760681150584018  0.6218965653445816
  0.0229890780469842  0.7498279859148871  0.5553673960024937
  0.0720325958956670  0.8739369359967496  0.5578277292611529
  0.0220626781830270  0.7533311149209239  0.3925438875229802
  0.2026236777135017  0.5001899163445925  0.5769410345919400
  0.2719077155277098  0.4993496820796074  0.4683796888687834
  0.2220237708478513  0.4998036472002552  0.7227339576407171
  0.2714149685859615  0.6233237104855588  0.7284880211341062
  0.2018106925255962  0.4999102272815484  0.9070496080491842
  0.2540566866482986  0.8809199274139926  0.2456659552828482
  0.2019663712312246  0.7499757981353279  0.2419531915607712
  0.2715266206860250  0.8732140039397155  0.0590986048637031
  0.2216601778340232  0.7480483729056214  0.0557715536056140
  0.2732560226806403  0.8769115430690734  0.2142464320479211
  0.2224544807989031  0.7510624898933470  0.2199617864978219
  0.2312476153910956  0.8803421969610598  0.2911383139458812
  0.2803722639260673  0.7479818752299680  0.2803963220900372
  0.2542502715051742  0.8737132716036359  0.1237901517588534
  0.2045585602632354  0.7483067434635881  0.1242779716230460
  0.2902104069386798  0.8759256448772300  0.1513947573877386
  0.2401144128590977  0.7501778715052836  0.1479753483482479
  0.0321467216556111  0.8734433268073378  0.2873110792183786
  0.0232746487869434  0.7512648842932261  0.2122588579162491
  0.0730797894319973  0.8752697978581309  0.2130166339896919
  0.0221082678212252  0.7498449453232285  0.0606510349469471
  0.0718397354658323  0.8750584825790684  0.0586658417302129
  0.0044735524938641  0.7585081168809480  0.2452733237790013
  0.0534187678381283  0.8751724395823534  0.2461181028433614
  0.0428937606364941  0.7505554937732014  0.0358923299723749
  0.0926087075674069  0.8749536377929358  0.0358769691380731
  0.0623919480166982  0.7480144464176942  0.3268539026369773
  0.2224627270233080  0.6202748791005812  0.8053656293746702
  0.2717297568166368  0.4970360783980362  0.8049166079394063
  0.2128922526543425  0.6204265130557693  0.9897156878046498
  0.2624545459654973  0.5002637735797777  0.9900156350183178
  0.2919735188904983  0.6216995286325121  0.7097762349029475
  0.2431203754509450  0.5002121773560934  0.7044504570370501
  0.2523115792769717  0.6244639828967313  0.9102183174072338
  0.2919694346738875  0.8751365661260250  0.0341328874837552
  0.2217422888768668  0.8786024628862147  0.8037583186768594
  0.2125333233635051  0.1242650118214599  0.9921124812020622
  0.2876182254194866  0.1238504801023575  0.6910401948875182
  0.1403946315382601  0.7475044435540059  0.1528013903850056
  0.1406228962891259  0.2534888888406367  0.4908571834479851
  0.1905121628351486  0.3756358047395945  0.4892220198136385
  0.1047947670433949  0.2492925244761798  0.4559309605489237
  0.1546645518133990  0.3773485082349474  0.4568153607126311
  0.1817790329668161  0.2514307114783563  0.6214990942879876
  0.1336211484466221  0.3744686259123873  0.6176736629156524
  0.1231218209427099  0.2524299524826007  0.5522927439824188
  0.1731287316356432  0.3751185230760616  0.5502222082172930
  0.1222361754341748  0.2502068590487670  0.3955325645225876
  0.1718860711363020  0.3774187804225422  0.3953268419366970
  0.1018263182608915  0.2494577705385944  0.5667722935405632
  0.1530204087845433  0.3750076471956666  0.5783755217168698
  0.1902626856178103  0.8747970433524543  0.1551502353603802
  0.1007300756360227  0.4896270221296736  0.6786863774239341
  0.1728406149364592  0.4952803012997493  0.8071189492208075
  0.1129102088204601  0.6221354881070669  0.9895993523927493
  0.1625575492122192  0.5006274893326099  0.9905658474818071
  0.1920181663600160  0.6261201468428782  0.7006633219322478
  0.1429298520748773  0.5000263458947782  0.7011051290313348
  0.1529103969823779  0.6249678977643561  0.9114013029389482
  0.1014994457896128  0.4986988082702520  0.9076146203289290
  0.1717592015292602  0.6215535634874867  0.7312990827824671
  0.1223282896314093  0.4986729717596853  0.7275021080525715
  0.1728952369157824  0.6239709936821668  0.8814485702925184
  0.1229005152431101  0.5004333947463119  0.8890404247462770
  0.1321475255891050  0.6260975126036179  0.9561259060008223
  0.1817305649967821  0.5018968333935919  0.9549754070433758
  0.1221996702307923  0.6227683697132301  0.8059240001058532
  0.1045274649138557  0.7508971239978184  0.1238932407938741
  0.1544889237850388  0.8746859831717075  0.1239061261614196
  0.1817370277805961  0.7485405229682639  0.2886184899665128
  0.1718147068871631  0.3756914233948149  0.0546126242315876
  0.1030233009861541  0.2566273112820378  0.2430632503915200
  0.1531268599889537  0.3814052775404916  0.2426457906345426
  0.1435307697032832  0.2500712780511399  0.0359889391878760
  0.1925158390452218  0.3748367404126298  0.0333664976768442
  0.1640722482057268  0.2535895013365846  0.3302173320102677
  0.1539536834437699  0.8745276313172543  0.4572509217961996
  0.1045412734005172  0.7488931690411652  0.4563587631073552
  0.1908466746425372  0.8750933815260803  0.4850008192145046
  0.1405955874013937  0.7482505852193501  0.4818826542959650
  0.1129653981341251  0.3735795011383232  0.3266380853979156
  0.1718821920959115  0.2524834385757919  0.1354428759155742
  0.1227216013159229  0.3688033900616915  0.1379878647952265
  0.1009689009817809  0.2528330861125888  0.0111278470361063
  0.1227021564082799  0.8704700432203432  0.1377791020915611
  0.1722626189213795  0.7508873717476118  0.1373426227637863
  0.1131972781277422  0.8715726959598051  0.3230441866742149
  0.1626342843934209  0.7518510393430091  0.3241744365905321
  0.1934172570735177  0.8748795143116628  0.0452667447544372
  0.1432683158518869  0.7497259895281849  0.0378341441032571
  0.1524606439549056  0.8748745758886490  0.2425340895444574
  0.1441080990953556  0.2478064900857267  0.2682338107814196
  0.1938304930463936  0.3757407810505609  0.2657872815960568
  0.1028824187000409  0.7560362469433316  0.2395963121218996
  0.1719997489319179  0.8745104376223953  0.0563773024799060
  0.1221922904776295  0.7499233658851802  0.0552140451651835
  0.1729269197853686  0.8742001728986010  0.2191996000680754
  0.1231361205191311  0.7482814578684742  0.2192995411260935
  0.1320885893141050  0.8774909271677455  0.2863132904299612
  0.1543031842533338  0.6229099880932878  0.7903523113016108
  0.1224572119850199  0.2501896860317633  0.0533552975612279
  0.1046965179217285  0.5027931524141394  0.7960820782995659
  0.1405736410603876  0.5000062601468636  0.8204901656780859
  0.1721640966775805  0.3755200778575916  0.7226382412292168
  0.1011360702034232  0.2507483274143963  0.8995166776216738
  0.1525273638288097  0.3753644098525684  0.9100988330470053
  0.1216306638724464  0.6294976438081227  0.1353467931438028
  0.1730877031774094  0.4987877477316503  0.1395350999167485
  0.1146053282549756  0.6271578348216813  0.3245122899621302
  0.1430325964965808  0.2498835937402559  0.7019091763223804
  0.1928841540427044  0.3748778377216124  0.7033828568885691
  0.1627643069057454  0.2495531533048847  0.9899619406033007
  0.1134760764115692  0.3823325144288229  0.9867091371870609
  0.1725100721024135  0.2550486139754518  0.8059807471513006
  0.1225480300863789  0.3754739943022400  0.8062566992266420
  0.1008194285060360  0.2610574231656357  0.6789860458402857
  0.1223762327038670  0.2512653527021707  0.7275465245947385
  0.1623229463130847  0.4990045353748754  0.3260573758738827
  0.1427338250073742  0.5003263328393638  0.0356650907496912
  0.1530308708525003  0.6240661961111733  0.2447484884749003
  0.1045667836706630  0.4942682547184395  0.2453397540002524
  0.1719627579868400  0.6245387174434437  0.0572440862696814
  0.1221077436041533  0.5002858046573726  0.0627817622582741
  0.1730183486674799  0.6265445403471313  0.2157117165532546
  0.1234749297128877  0.5015814508741581  0.2119926462816742
  0.1328090081620417  0.6216696889026961  0.2850569221278330
  0.1811144700906325  0.5048671300972918  0.2898536936688126
  0.1545544765202382  0.6238073470295254  0.1229929432250072
  0.1043594406049532  0.5009134029783632  0.1238211740726877
  0.1904425132698378  0.6262562431979934  0.1528128123282949
  0.1407467977266551  0.5035068918533665  0.1543552269339460
  0.1928250809222976  0.6252460492741065  0.0363492288438689
  0.1728914216402929  0.3748803562307128  0.8875700619616922
  0.1229369611001358  0.2498777170627514  0.8877162338714897
  0.1324858305002447  0.3743561708900381  0.9540186555963766
  0.1437141510924362  0.2502436593064722  0.3804081641832289
  0.1930962414452859  0.3749936490275108  0.3782222981875987
  0.1627688105269325  0.2488357513762496  0.6586944069828872
  0.1149139026035759  0.3756807965237485  0.6489617709760100
  0.1729441597535311  0.2484441615562725  0.4729083342907956
  0.1220591121719327  0.3765544949219279  0.4701464167163218
  0.1406115714393844  0.2503840717941549  0.8202764929942370
  0.1234526509814380  0.6231913059293664  0.4755628481925359
  0.1729401554984659  0.5026461264156807  0.4733406927715183
  0.1132911119751259  0.6249510371280441  0.6565731685307471
  0.1626824150820981  0.5013111975028683  0.6579954714532706
  0.1928777595459613  0.6244414143536635  0.3697797802933458
  0.1428917156119278  0.5000892776569196  0.3686924727741252
  0.1529638716032210  0.6197292836921264  0.5756131410761451
  0.1012903146641212  0.5000615812378478  0.5659721152255934
  0.1720995080576032  0.6247577645336144  0.3878804755413804
  0.1221040172509176  0.5012253750395579  0.3927711396804238
  0.1904149750887242  0.3739885694378456  0.8192887175388497
  0.1048959251516846  0.2472338291427152  0.7937694784107938
  0.1545151585822505  0.3758697752837847  0.7907753766355173
  0.1818781606475119  0.2483367194070081  0.9545814561488399
  0.1730295810688058  0.6252125673857859  0.5521812127195583
  0.1230044569842402  0.4970053538386505  0.5540541688415248
  0.1319987047847400  0.6209976436898822  0.6213482377449741
  0.1818597276977853  0.4988188852364076  0.6216755262300435
  0.1544922846793718  0.6216455739258545  0.4563519666817780
  0.1048947147245739  0.5013434156746929  0.4561665898107614
  0.1903559620178030  0.6262595930280693  0.4860503532184083
  0.1405863800268746  0.4964128761592930  0.4878854464836681
  0.1906427848244157  0.6250022055454167  0.8201033579694935
  0.2641629933131924  0.0003471007511695  0.9944911025290987
  0.1820675809926572  0.7530935184333151  0.6185657866390304
  0.1227648143677112  0.7507302244049195  0.5492087716487815
  0.2524412707816335  0.1250329792971694  0.5767180444682919
  0.2028073630968549  0.0001257584411821  0.5759974057971096
  0.2718402818044172  0.1272143218636107  0.3869051386894930
  0.2218459244818379 -0.0007912935124842  0.3923375314972748
  0.2731321346742769  0.1297621219557910  0.5515610549619285
  0.2229232214498681  0.0006645081717610  0.5487623035073668
  0.2317810844270300  0.1233645962002376  0.6208417115915670
  0.2802803248767196 -0.0020666378253324  0.6108658115565373
  0.2541685377814901  0.1261550091861876  0.4569448163943855
  0.2044240223573723 -0.0003182006931560  0.4557389086269987
  0.2899983212628185  0.1249977474386705  0.4838756001923308
  0.2403723865214819  0.0005739157986615  0.4868136280409376
  0.1644197343587192  0.0090420502598105  0.6621648944257322
  0.2429602760105843  0.0001983138547593  0.3707143281531907
  0.1132537834927139  0.1251500121220817  0.6571187598217683
  0.1230934061717710  0.1243324990613707  0.4741923538413696
  0.4046547948062307 -0.0003519646379009  0.7886508619174373
  0.1441542165118544 -0.0085030587954368  0.5997734485802803
  0.1404152016494910  0.0008364804401770  0.8227591274081412
  0.1906623771907306  0.1270054137648596  0.8200094851032874
  0.1046108539922362 -0.0015435243146558  0.7917995077597944
  0.1543106089368192  0.1262744877588267  0.7905544847978877
  0.2221887751163077  0.1271044906820759  0.1377226758325427
  0.2725425887513095  0.0021062478472483  0.1380657700781529
  0.2128772715603606  0.1220368204906547  0.3245299026744181
  0.2626021066404913 -0.0000716134410149  0.3260008596661235
  0.2924866604528772  0.1257446112735405  0.0356357249811292
  0.2435668169697100  0.0000250518836768  0.0468547286317560
  0.1718274733596997  0.0042719056333058  0.4687831401399404
  0.2927445916115757  0.1244413078987387  0.3684940003073752
  0.2627041945920229  0.0045150992440269  0.6608465892339378
  0.2127374991515610  0.1270850741291654  0.6563020099589344
  0.2429036406893467 -0.0004577909923998  0.7024459311907364
  0.1403498460562831  0.0009139302325812  0.4818488706627825
  0.1903638862756671  0.1229382926269479  0.4860166662932873
  0.1046369031134449  0.0006116928839520  0.4561558584678470
  0.1545972962952443  0.1255125768604879  0.4569612767387977
  0.1820019403178738 -0.0039126072906297  0.6171679587737253
  0.2536743884572322  0.1311698721680729  0.9120514629019409
  0.2028387412848666  0.0058438118985444  0.9082324990987105
  0.2706674367969389  0.1270880669734102  0.7349345417839039
  0.2216978294512574  0.0005455295560125  0.7214090866537033
  0.2728626133162256  0.1263729950516231  0.8827168110907861
  0.2226001038837652 -0.0007143346721028  0.8841875237595672
  0.2312260070840197  0.1309676648741819  0.9571673610969614
  0.2820686426744853  0.0005988352658456  0.9523318159927158
  0.2538159840627358  0.1262430637791975  0.7911154180171571
  0.2042576509087887  0.0022438624409001  0.7892790305406497
  0.2905653597542616  0.1253968236750221  0.8185408064412610
  0.2398561673762515  0.0000367647232186  0.8156928463667215
  0.1319669057700809  0.1294323086420400  0.6217540518194031
  0.1228231902352498 -0.0008164603738447  0.5497946323027669
  0.1731072086045544  0.1247862076791131  0.5517914681931408
  0.1217913335254514 -0.0016392778254723  0.3908027890868760
  0.1719177790001307  0.1237919143790163  0.3893450569693984
  0.1033890217445324  0.0064511165272566  0.5769258668441331
  0.1531408173252471  0.1302757615481916  0.5764421759839757
  0.1432289906840720  0.0000051772911909  0.3691132666561602
  0.1930755978960031  0.1243493102650100  0.3702097942122907
  0.2224655141702984  0.1263979161646822  0.4722471926048347
  0.2720557856925690  0.0086657187788271  0.4700754770690485
  0.2526933133438700  0.1244914965875787  0.2446328072717573
  0.1304503550816535  0.8749742902212213  0.6274219114265386
  0.2026859762591965 -0.0001909678937444  0.2442716110170737
  0.2219650460306275  0.0011384482799063  0.0626148337007787
  0.1722453229624691  0.8747253026670126  0.8872962799381491
  0.1228043618295638  0.7489762339497575  0.8858738320619955
  0.1320576749393701  0.8739589755239980  0.9557256287827675
  0.1810307028182165  0.7437399291682550  0.9572469028814387
  0.1545267114031196  0.8751102624409306  0.7910276440288947
  0.1046193551841237  0.7516428685693468  0.7922472720255380
  0.1903423420647517  0.8748446593800637  0.8140256695608037
  0.1404330541795891  0.7487657067642129  0.8227938334814814
  0.1441128273893507  0.7587991595183141  0.5995397219203569
  0.1403188302435534  0.2485115266427936  0.1492377307968950
  0.1901947175889889  0.3734756000061032  0.1475021080687162
  0.1045597208509975  0.2515148452667809  0.1285368734129481
  0.1542732944699771  0.3774185468260094  0.1219649773655899
  0.1220236408880053  0.7484664489502513  0.7293261406485113
  0.1816190081567270  0.2435192618968861  0.2879205098552207
  0.1230060874920623  0.2482586959448169  0.2201694404279700
  0.1726785626791985  0.3734555392066591  0.2160962006832833
  0.1222230346811306  0.8756722337722198  0.4720878668914383
  0.1716653191533260  0.7436056720839948  0.4676859803536558
  0.1131157910202755  0.8746421107910547  0.6672758973866645
  0.1643146024727898  0.7411146960981259  0.6625412803904847
  0.1922592007461265  0.8761735677832636  0.3677700895720770
  0.1425210798264292  0.7498337785239194  0.3665620558252618
  0.1581323043613056  0.8750750302290636  0.5903780691169001
  0.1031773283949340  0.7421919761699877  0.5770411972939289
  0.1718021731948099  0.8736122432579042  0.3950923605380876
  0.1217019574039343  0.7500496654410166  0.3947450308512465
  0.1738223086520202  0.8740078645155755  0.5395444558787678
  0.1315608219792222  0.3831167930341672  0.2890758245013845
  0.1712543638578134  0.8752058865275621  0.7231811379572470
  0.1024711234002811  0.7502414762113867  0.9101831014812686
  0.1521759679933746  0.8748333273886060  0.9107993207362243
  0.2728312853139798  0.1268907743984399  0.2166530800454110
  0.1811205500689140  0.0053600755873183  0.9570010266565936
  0.1324752652832020  0.1253879773240206  0.9545790112460716
  0.1227059048214086  0.0006039649590902  0.8874785195203219
  0.2229646358906679  0.0004920434121129  0.2163971530025756
  0.2319540107798464  0.1245330175041664  0.2883426222795014
  0.2814355280670241  0.0036605947365192  0.2864137040511239
  0.2543564360661193  0.1268913449472997  0.1240697782692543
  0.2044838808789258  0.0009372614573018  0.1255168013193671
  0.2902920380345729  0.1264443432424213  0.1524998774847000
  0.2404501171262619  0.0007325947003562  0.1565825956436473
  0.1934849798153076  0.8728258821352551  0.9314910884619790
  0.1728921665198773  0.1262372273046354  0.8814584802880020
  0.1219955872157959  0.0014210433671698  0.7285341037729229
  0.1717532928737695  0.1277941062151557  0.7317414334854944
  0.1018821153823930 -0.0006155337080534  0.9072748755692498
  0.1529944138289779  0.1245900586449933  0.9115438392107305
  0.1435698847433637 -0.0003260198352640  0.7120900741884061
  0.1917454360856475  0.1246243197991915  0.6997063818447241
  0.1228362377913127  0.8756444298589893  0.8090916688814878
  0.1729981481419063  0.7538540189751572  0.8081843326685971
  0.1129269112202388  0.8771364211194949  0.9899853513438012
  0.1623025318096999 -0.0004773063560733  0.9924600694745402
  0.1134116013544100  0.1192788898925011  0.9872729994472617
  0.1732766036936382 -0.0039092678491493  0.8089802589352887
  0.1223881198181061  0.1260607213000266  0.8063014527835807
  0.1622824970135122  0.7500658294660786  0.9921467313114652
  0.1923884173153529  0.8743258115050744  0.7002804453350575
  0.1435529329386083  0.7501274621558033  0.7121010671278588
  0.2715853237146508  0.1273677578201638  0.0587322802391081
  0.0404042791956671  0.5016150753234141  0.8216140565772998
  0.0220766521086629  0.6224936994941975  0.8044102788270225
  0.0403200821468702  0.2491915137539158  0.8232603419341868
  0.3540488333466159  0.8811072220661252  0.9121565642534099
  0.3426710952293013  0.7495956456236210  0.7015192677472204
  0.3920502248634169  0.8791421596808789  0.7013043037930589
  0.3932605667580425  0.6260900499211693  0.0387813874830418
  0.3429040351543206  0.5000451881680554  0.0354442567738839
  0.3540537211304746  0.6299296188720537  0.2473754523363622
  0.3016286455137307  0.4992373790622393  0.2411950964222267
  0.3714894913072891  0.6235269449821099  0.0527984163551349
  0.3217130341028019  0.4994536512717214  0.0542884788841446
  0.3726953278531374  0.6238341934722457  0.2132969511759806
  0.3222840689784129  0.4996434623379183  0.2203521675048657
  0.0802409978678331  0.2386072760898605  0.6145460827903276
  0.0317982989035098  0.3806563643577460  0.6245377200361545
  0.0227795356107232  0.2501077518843433  0.5570614319095442
  0.0737349746047181  0.3758081380068055  0.5523648993829673
  0.0223123919906864  0.2486266822158196  0.3901491157713296
  0.0720575755836732  0.3731116958506690  0.3872718437115446
  0.3641594787804076  0.7543679571239131  0.9935523124857053
  0.3314719141602414  0.6310092296885428  0.2895325102419063
  0.3796943432473063  0.5011024517698129  0.2922738294594334
  0.3539560750968297  0.6237526017287326  0.1228247728076347
  0.3043269492217821  0.4993395770389396  0.1245494053783887
  0.3899846902050497  0.6254858717610740  0.1481828442893699
  0.3628391266063497  0.5003938036736152  0.3388215615565890
  0.3128247936117391  0.6173468506545680  0.3225305684340375
  0.3712710333001782  0.5033093051369795  0.1321197434859546
  0.3223551488649144  0.6211820620264633  0.1389144692773521
  0.3540546432949699  0.6250848977606707  0.4567906166165329
  0.3041598392669378  0.4964626893453580  0.4546303600965938
  0.3901124745880789  0.6261217263167751  0.4886164872529773
  0.3401908047133434  0.5015187804289524  0.4888498796942798
  0.3938292715349451  0.6181062478446526  0.2654374362498951
  0.3043401177979172  0.7467350993706081  0.7974654359887849
  0.3542418393366136  0.8748582716866106  0.7898592237341884
  0.3820033649855054  0.7489033514063860  0.9498373794791644
  0.3311869573740926  0.8819830785859853  0.9586183553005347
  0.3223677073564252  0.7513354971286779  0.8901125191907494
  0.3436975421835443  0.4976229330318845  0.2647692588147508
  0.3399400848477533  0.4991693892519464  0.1475449381330292
  0.3733358083381808  0.8746601780233328  0.8803890230815369
  0.0404555410668156  0.2513665315730584  0.4831407192810742
  0.0901888560733969  0.3742537559709413  0.4845578114277042
  0.0048041103899284  0.2435726934532210  0.4628966163464920
  0.0556439713012474  0.1202679008655801  0.5839579581881974
  0.0024564047245042  0.0008861574759404  0.5767529161132767
  0.0717946958112579  0.1222450538662846  0.3986900976577846
  0.0220302424650228  0.0006631343606230  0.3964941233695098
  0.3220381426722195  0.7511043462197401  0.7247302673474838
  0.3718832223973557  0.8734262793563810  0.7239137126436336
  0.0545650160804768  0.3743857675217678  0.4579393357712490
  0.3013188949278819  0.7488150098100361  0.9088650807802271
  0.0425104638171778 -0.0003850808976170  0.3683054405150652
  0.3807214315973382  0.4995651721194657  0.6066121583545359
  0.3123158599346927  0.8729796409618553  0.9920452720886935
  0.3217868763855950  0.8711543539843438  0.8047263163435336
  0.4405897678431290  0.0013676318737220  0.1536304431616309
  0.0908660434343195  0.1236352530782523  0.4872973354703548
  0.0406691179343332  0.0010967493284543  0.4875160151211805
  0.3722425831930551  0.3706249637193416  0.8792290081773484
  0.3227809151349213  0.2493215570153368  0.8881311202696061
  0.3316432262789219  0.3761424505348034  0.9549184581446103
  0.0936371709912098  0.1225602218389322  0.2630769914227807
  0.3815872978665600  0.2548898268485715  0.9522335125508136
  0.3532108304224784  0.3751529643877086  0.7911450394071864
  0.3043130684875350  0.2514388288145221  0.7962283175467492
  0.3911825758189872  0.3582673157732789  0.8147741643207863
  0.3400509257513041  0.2483849105573316  0.8206552980065711
  0.0442406853708138  0.2470869998184890  0.6011420290673455
  0.0902809751060201  0.1209504116477565  0.8192738148626004
  0.0910239253020562  0.3756347073064282  0.8180249007088116
  0.0045130666647038  0.2482620148681746  0.7910819955841584
  0.4907839666109041  0.1278487007812674  0.1531985821085313
  0.4048579959374897  0.0004130596568007  0.1261818170329295
  0.4544731284430547  0.1234101285808013  0.1239392463695129
  0.4811018271777198  0.0105402922526733  0.2900422213862855
  0.4331580344108476  0.1261158212567114  0.2835926318522621
  0.4228954921721654  0.0009978313000705  0.2214538206395056
  0.4731348705399972  0.1267472196657595  0.2122797493923485
  0.0046121564236229 -0.0013053895026800  0.4577447906731662
  0.3220867982401118  0.2489316244534079  0.7254251274822870
  0.3703313201338473  0.3903920205955477  0.7424364191488445
  0.3021426170929559  0.2497852049071850  0.9110827690016003
  0.3007279449573830  0.7623560099426961  0.6816831247707201
  0.0733121887338603  0.1214558724304713  0.5393640624789322
  0.0016924664714015  0.2490099778871494  0.5750443089068451
  0.0541590395024626  0.3805207957944731  0.5800630437467923
  0.3007404224457463  0.2436182974983870  0.6774412225711979
  0.0229268410031434  0.0000083438625473  0.5504322073154301
  0.0313838721365910  0.1189447541980007  0.6258589134684236
  0.0809979306385472  0.0073163518803044  0.6232317424487969
  0.0539444099772695  0.1241928676538857  0.4564875980866781
  0.3216841387455219  0.3708770636115394  0.8040804214987732
  0.3715595697546980  0.2445755943323401  0.8003330312421242
  0.3724599497168282  0.7500389552691825  0.8035384197041318
  0.3124948706388768  0.3721287734124687  0.9903529842343640
  0.3860265328186772  0.3756526593646471  0.6874466038212549
  0.0433885150705736  0.2506376519378720  0.3692996875870019
  0.0932477404539060  0.3756844632725565  0.3709384634962576
  0.0641515408488434  0.2573432336670216  0.6680946045418734
  0.0130819643925772  0.3697704961468236  0.6572243379887081
  0.0721672069946225  0.2550009261425529  0.4703998669892088
  0.0224181413916222  0.3693453334200803  0.4727006807584929
  0.0008524243685350  0.2584093792264350  0.3463028182671510
  0.3437231888024716  0.7504495906086065  0.9350638271380063
  0.3426678887090936  0.2500474289627819  0.7025761406227481
  0.3524755832384130  0.3743918710728004  0.9106463544548052
  0.3623977866108747  0.2485730885744628  0.9894344573460591
  0.3325289106109403  0.6237205337265466  0.6191896403906337
  0.3226897208837359  0.5011129166488858  0.5493763847416777
  0.3728999182831239  0.6299195153160385  0.5477279706475114
  0.3016383892515908  0.7501219595347935  0.2320730421171258
  0.3431907703585148  0.7501504685166509  0.3712230605994673
  0.3924367036358555  0.8691820763458837  0.3697596839026309
  0.3629412909960166  0.7398097993055337  0.6653558149519996
  0.0403949768405835  0.0007479216100770  0.8203108204530671
  0.3712212026004166  0.8781144152567641  0.0639549983360910
  0.3219241461570757  0.7495904381255638  0.0605325204584243
  0.3729702240759757  0.8713567503831753  0.2096822050869709
  0.3227161071398884  0.7510136581865126  0.2155290283623833
  0.3325786324651022  0.8743446888406753  0.2852357504988445
  0.3809677330946350  0.7528059965253148  0.2888137094305943
  0.0432040630359748  0.0006608251703234  0.7046335237443937
  0.0923481594521351  0.1209339659158792  0.7043736781943788
  0.0625992767486562 -0.0009290668950498  0.9906268044562019
  0.0129728698233671  0.1259072895622814  0.9894131461114232
  0.0724545106818426 -0.0003187013020655  0.8061764140967796
  0.0224377385538489  0.1230329436702820  0.8063694799533018
  0.3540348163647818  0.8782704944852466  0.1237492020067897
  0.3043366982397110  0.7497720730097985  0.1215976193265790
  0.3905851767066320  0.8746299011327088  0.1512789084762563
  0.3402970301654639  0.7511064506032142  0.1561607521988287
  0.3935872477965387  0.6146800174193099  0.9241854411724164
  0.0229236276481002  0.1292859180283042  0.4744490396489218
  0.3531458491740377  0.8765181576959110  0.2455921088223422
  0.3435586177027363  0.7504134139217934  0.0468697544122234
  0.3901345532627607  0.8697244316416498  0.0299511792443305
  0.3622866786942153  0.7507118720325356  0.3264806603233239
  0.0046347720998230  0.0003837651175147  0.7915923810632588
  0.0545801622740050  0.1242758485481345  0.7913575989999260
  0.0816954435724209 -0.0039964265807603  0.9544717226468431
  0.3901784026928163  0.8724144406238964  0.4855192635971130
  0.3044831176268342  0.7499956172903707  0.4601904388910081
  0.3540133334675790  0.8766708743467504  0.4562182628444096
  0.3803302097888901  0.7600794119878652  0.6168102015295389
  0.3331863128915168  0.8762778138226092  0.6167187457828019
  0.3231416551478604  0.7492599270068123  0.5536736842507184
  0.3727769374920331  0.8779474273393300  0.5481389375790354
  0.3222786930395765  0.7498573112450533  0.3898428669528267
  0.0730174034211364 -0.0126085124999327  0.4732633483048637
  0.3718563077317583  0.8765887280746967  0.3874421502434475
  0.3531305508371426  0.8742065314933427  0.5791020934996576
  0.0320718532439999  0.1253340340909474  0.9550259571315058
  0.0228580136142566 -0.0000436566673045  0.8868732224657807
  0.0729674489031418  0.1223233426989681  0.8861754855598648
  0.0221076988024526 -0.0000949156966224  0.7244847305577518
  0.0716261856590951  0.1228737061582624  0.7239316346650418
  0.0022258677722862  0.0000025664411432  0.9084127387621034
  0.0527046686475347  0.1252560615526197  0.9113058466074628
  0.3221062095079369  0.8778497402731367  0.1377722228869200
  0.3722397772316417  0.7451822284033471  0.1359843749205546
  0.3136090944582618  0.8809494378413569  0.3189072067895791
  0.3023559526743044  0.7567872671119450  0.5712301943725818
  0.3145440241946640  0.8803585099539382  0.6496961946055377
  0.3717395148287406  0.7539418689863073  0.4689950274746891
  0.3223071926587517  0.8720990249349945  0.4703649133580798
  0.0230663934667816  0.2484085703950205  0.2152682710919009
  0.0734129115216263  0.3776915341732348  0.2079626410771406
  0.0221268401406472  0.2502664845308653  0.0597291853256950
  0.0715474204272599  0.3727632499396579  0.0647582148211354
  0.0020094876248753  0.2491756387887373  0.2337918622713236
  0.0556279767418232  0.3693660327487308  0.2506766445758300
  0.0428596385334015  0.2499895111575983  0.0365041129032563
  0.0905219983995591  0.3816290139481845  0.0312585364625455
  0.0627718397020010  0.2425283104959091  0.3266827245563920
  0.0143761474777220  0.3758934992187625  0.3176198349111322
  0.0741693934807514  0.2430894308602749  0.1436053298616155
  0.0325449591205704  0.3689068806286545  0.2861140517464504
  0.0230321875429488  0.3779370030365566  0.1395985354526641
  0.3901341025066002  0.8787521734144059  0.8202175693427877
  0.3214165835528630  0.6282109881612390  0.4696472585664182
  0.3722532904813167  0.4986973200973057  0.4725764293055721
  0.3143303131024450  0.6214783532001571  0.6573253615964860
  0.3628152712790260  0.4989546797209400  0.6561208680080184
  0.3928646264104841  0.6246631497379572  0.3773515298752247
  0.3426288399223312  0.4993880809636437  0.3769049697600062
  0.3530984433055092  0.6242380662676814  0.5787324662157055
  0.3024498308756320  0.4904741736946703  0.5719061611294223
  0.3716913391058694  0.6278725292560503  0.3941089586557151
  0.3215416286166572  0.4976915532945306  0.3952769249113938
  0.3401082383384742  0.7549713686057127  0.8172569019750424
  0.4224461309973184  0.0010212675808687  0.0575804796689417
  0.3402119905781694  0.4982178629842258  0.8208195793563915
  0.3041813980709869  0.5003394309309148  0.7910565248713924
  0.3008323624484445  0.7528075003641925  0.3436629287437366
  0.0124006113929832  0.1261421813518284  0.6584359066570522
  0.0623419244004949 -0.0053241191560125  0.6601117013029234
  0.3227340224538474  0.6303946264120764  0.8082878429395808
  0.3809078015671118  0.4945041748787504  0.8383374930033264
  0.3122406469461831  0.6270733177349126  0.9909091544652602
  0.3618842315166695  0.4971718535800924  0.9907311695315344
  0.3841977131895851  0.6244080316336437  0.6818030743967480
  0.3421383332365991  0.4998629496704475  0.7024736209264935
  0.0406648449844679  0.2492517989724609  0.1533588694141723
  0.0909326598003443  0.3796067509943370  0.1525741400248039
  0.3916786825358202  0.6335031378841018  0.8042369935816184
  0.0047573741182449  0.2508021200539000  0.1216346052194985
  0.0811974925525168  0.2592044994441742  0.2887995952786926
  0.3537511872930570  0.6187096783506787  0.9125801148787790
  0.3023644071417971  0.5005268473353065  0.9109490143728475
  0.3700095924511880  0.6034319753167222  0.7461365003775094
  0.3214613623680986  0.5000462332297554  0.7307278386389255
  0.0922674193435386  0.1251431424539453  0.3734873383798356
  0.3721615444163913  0.6247318001634448  0.8772257115369723
  0.3225052387336079  0.4983874859271162  0.8819007573480233
  0.3310754927140816  0.6184430367672749  0.9568452322522625
  0.3807264540839514  0.4937233787146820  0.9570401057169405
  0.3528282397259945  0.6260144940244812  0.7916332661162093
  0.0540422153669208  0.3734290726396683  0.1240020841674804
  0.0538362350557079  0.3764910948256474  0.7935825078596593
  0.3402790892395597  0.7487368816016263  0.4874991695256720
  0.0321362265420766  0.3742557265163316  0.9553465713426191
  0.4719341221690939  0.1261922598535567  0.3855743035955236
  0.4012014732059123  0.0001562991582851  0.5729856106757676
  0.4525860129984799  0.1244336936533184  0.5777540326049421
  0.3222913738718583  0.1271014062272319  0.4715259540757837
  0.3727784346018538 -0.0069543308626590  0.4710810410098926
  0.3144804903242037  0.1221786684180907  0.6497708114485456
  0.3624490844149136 -0.0019634485510945  0.6585809855710051
  0.3860453545511977  0.1240533879183188  0.3512038329533108
  0.3420177710528008 -0.0002806399640566  0.3663201183596516
  0.3537021061829270  0.1250959165340471  0.5809273942438206
  0.3013376143469389 -0.0012291255477620  0.5650264774911972
  0.3705522486588201  0.1246177830881931  0.4035246387028651
  0.3217812886864245  0.0006030419347440  0.3943403438808841
  0.3729758989166553  0.1207813742494394  0.5417582863174406
  0.3230104147614288  0.0002141503611702  0.5517931906778694
  0.4428138605619056  0.0004120122295695  0.3688185575412461
  0.0441116237405039  0.4986015441723979  0.2662065182467250
  0.0939184646766638  0.6232208488928965  0.2655513642186602
  0.0407986886961575  0.5012864915508369  0.4910983263936485
  0.0907756919648130  0.6264574999665828  0.4898898602739927
  0.0714936032461686  0.1254439090240303  0.0565255145480203
  0.0048385351889391  0.5031841772157419  0.4615319212066902
  0.0222216053518300  0.0007675902311225  0.0566862673328198
  0.4222348207099363 -0.0003116316249852  0.3938398839371436
  0.0221803967283588  0.6213836662122583  0.1381134088980840
  0.0711191295207317  0.5071194828212474  0.1328383250763352
  0.0141966926353769  0.6232157356790201  0.3283638641322442
  0.3524012383126657  0.1240582432068055  0.9104277851704715
  0.3027709811378708  0.0004113023328704  0.9123128401496786
  0.3719341574892515  0.1256957376974463  0.7196110664319437
  0.3221338349126003  0.0002515201273778  0.7303351974832882
  0.3728493022370820  0.1269235106022682  0.8837765869431295
  0.3229318381481408  0.0006850741875148  0.8830061132310595
  0.3317758404846962  0.1228298798388331  0.9561237737681011
  0.3801926035377595 -0.0009859475097844  0.9495692264984577
  0.3539827434514027  0.1246044279001097  0.7906524876650259
  0.3041335407328447  0.0005170641858603  0.7959462914879762
  0.0803535539592543  0.2526440936317098  0.9501186293861469
  0.0723934414083660  0.1235348855096034  0.2209281698975084
  0.3404903133744821 -0.0010270972881580  0.8205805090471326
  0.0018090168418863  0.0008077172375025  0.2396111987863374
  0.4405992474766651  0.0003370694291256  0.4871826393555723
  0.4901276013666951  0.1283707257248777  0.4809003883626977
  0.4047814890846770 -0.0042615503760550  0.4631141113566825
  0.4542973282782014  0.1256181457827487  0.4560883429349715
  0.4798997527542732  0.0018370933559411  0.6269340826517955
  0.4323335437927662  0.1266054758603911  0.6217026945464935
  0.4225970315647676  0.0000771924800128  0.5584900032402973
  0.4725287995381256  0.1266114441820658  0.5503508758756065
  0.0927607344986955  0.6251803042100089  0.0342193852330816
  0.0640372759385420  0.5060179308604887  0.3319722289175778
  0.0430700899743482  0.5004480519851368  0.0354445422266702
  0.3425074782397159 -0.0002301133542627  0.7003140795803401
  0.0228983250410438  0.0006079676124245  0.2203738691699174
  0.0542182223579748  0.6276836634283449  0.4573364204517453
  0.0437090101093049  0.5004019161603162  0.3794823808942070
  0.0925630711892274  0.6249977184114971  0.3761746075264263
  0.0626101664814755  0.4978580263508937  0.6632272736856381
  0.3907475937057451  0.1301321823439459  0.0306558860643253
  0.3431104280893666  0.0001243965308745  0.0382099395658734
  0.3520141370097674  0.1243645901405176  0.2416022608607534
  0.3016742921768725 -0.0001066576735441  0.2393266060017089
  0.3714289411335776  0.1261526790807980  0.0587959630614774
  0.3220137082160129  0.0003871925118807  0.0563929740772886
  0.3731452732307737  0.1245532788332772  0.2196139001497984
  0.3228035908884360 -0.0001648892337439  0.2211202370057793
  0.3319169894312399  0.1259482464477470  0.2865913753011547
  0.3800038703784789 -0.0118415597922773  0.2835380554909940
  0.3544158321475008  0.1259337868734455  0.1235571136092442
  0.3044221747072656  0.0001799472823735  0.1246693403749946
  0.3903100303954923  0.1237921032822340  0.1507270374825780
  0.3402247905836681  0.0003375088471193  0.1545866950065812
  0.0138399504803728  0.6307396616087964  0.6542734042313879
  0.0724730387863950  0.4956564836637746  0.4708706451016765
  0.0221825992902903  0.6276188983024990  0.4714680599807216
  0.0008974582581895  0.4891791447376673  0.3457389079536116
  0.4938474820127033  0.1180828564149636  0.5980811740461431
  0.4407579098262286 -0.0006892406198936  0.8201533409413045
  0.0535129828638181  0.6253791534047607  0.5804061238038184
  0.0021544319651861  0.5002992477046327  0.5701434802435174
  0.0718696490626071  0.6293082559121780  0.3993931812589050
  0.0225278893309270  0.4971963016397837  0.3986520348288041
  0.0810771384447376 -0.0075338364141529  0.2903802817802745
  0.0800982095746186  0.5134753631508906  0.6175844172021511
  0.3332861985481588  0.1229897713860556  0.6173676778174298
  0.3814517069195337  0.0021935389898890  0.6209251987639445
  0.3534718896707280  0.1240697468104635  0.4573053817575727
  0.3045227462065108  0.0000263349349918  0.4547443471411201
  0.3908807541488553  0.1233793333963087  0.4818582855495739
  0.3403515229856544 -0.0008676344721537  0.4879514233453692
  0.0327505946011208  0.6248169548234975  0.6199305371985525
  0.0545672388502042  0.1260854782807055  0.1230080456116087
  0.0046523987006444  0.0002113054251832  0.1242313544881250
  0.0323228788544471  0.1264961723383176  0.2873271957871104
  0.4935659922895774  0.1255067042758685  0.3698990926194349
  0.4131687531267056  0.1198728364557985  0.6542933429166763
  0.4723926962323008  0.0047290166194221  0.4713235044756268
  0.4225841786550583  0.1213141916986264  0.4745061955045383
  0.4007556349280659  0.0106228096061676  0.3466849158594504
  0.0906208247202002  0.1223681531332413  0.1463835028639348
  0.0232529026728454  0.5007687526465331  0.5512475407169753
  0.3222090014356565  0.1226220581345690  0.1380621775669806
  0.3730430312622848  0.0042229457893673  0.1403637137004555
  0.3128314701904047  0.1227819769373192  0.3216613588908705
  0.3620216891821804  0.0049240687858749  0.3258626496185468
  0.0732358626008305  0.6286264004105860  0.5428928374393293
  0.4616360467228181  0.0003772222866502  0.6622543737043802
  0.3924852749269953  0.1195826953179922  0.7030389989894964
  0.3899107937167939  0.1239484443815964  0.8184384133627103
  0.3125464490219669  0.1273888560577886  0.9910381803509851
  0.3320773200942871  0.3755621282180915  0.6194757005962114
  0.3622858481334582  0.0012828606709059  0.9931646051489148
  0.3224888436736426  0.3780044526771580  0.1394000606252306
  0.3226475696852113  0.2477074474274858  0.5550104462810963
  0.3731259313965775  0.2488537008143863  0.1400955521146741
  0.3121895111324344  0.3773251577645448  0.3242052214572664
  0.3621736777773246  0.2425479293286514  0.3269050141236486
  0.3924313235849388  0.3763505622671243  0.0306263173301799
  0.3424959953736076  0.2493329957794350  0.0352153704623715
  0.3548670306120481  0.3686864547004022  0.2491819820306694
  0.4224773165943153  0.1230841291047967  0.1381473226229063
  0.4008365365675893 -0.0024571985392181  0.0095883987164494
  0.3727782225157195  0.3702668385437410  0.5515429752917343
  0.3218515606465240  0.2499667449470875  0.3893238745987841
  0.3715570394165909  0.3701139520283829  0.3912686508475824
  0.3007346942749848  0.2493126565595815  0.5640843586013669
  0.3523780029477248  0.3750204763250958  0.5764156298086177
  0.3428415283484151  0.2499919205817376  0.3702663776581301
  0.0022623592696872  0.2497567753059945  0.9079017395922974
  0.4728069454702638 -0.0035928801699766  0.1388870349153513
  0.4147833408406805  0.1239578836743642  0.3166004592170579
  0.4623049848866398 -0.0023187750473194  0.3256433494895871
  0.4929392315935909  0.1259595209717856  0.0368222315816067
  0.0707788437732081  0.3794589299189192  0.7411462069466969
  0.0434511499950011  0.2501367163264185  0.7131647371491165
  0.0860113986514450  0.3748579658115919  0.6853516961103532
  0.3046858911466816  0.2502592084748295  0.4553525472780863
  0.0220295497002357  0.2487515401959795  0.7287129242589256
  0.3900700197219882  0.3781597739520209  0.4881521509350811
  0.3402114185369987  0.2490310774829908  0.4869172807938525
  0.3936367111739927  0.3870054762785148  0.2619010152858410
  0.0623732041223758  0.2513331142117236  0.9927333718639326
  0.3714317640009229  0.3732782196104001  0.0556119692648736
  0.0128794875620083  0.3734793956621251  0.9892722893816978
  0.4434701382829877  0.0001159543657188  0.0374351496557926
  0.4536753884488847  0.1256122747752386  0.2467384938345326
  0.0732697834394908  0.2438028152326632  0.8088156857400206
  0.0222301128717174  0.3775662994366488  0.8054697681047357
  0.4012968805934390 -0.0001952688967536  0.2341282686573043
  0.4720099156600716  0.1232551828686635  0.0607125315373831
  0.0228656057814426  0.2503769398286716  0.8851158477526767
  0.3542793644799445  0.3730026861043667  0.4568374343823169
  0.3799404016484708  0.2364809535411748  0.6182256200580396
  0.0732944626636239  0.3768439921813188  0.8798156038324536
  0.3216831937722437  0.2501610334335933  0.0594713142393558
  0.3024211101714181  0.2496522777577081  0.2418971541672351
  0.3227122696699515  0.2491543052996378  0.2153759035288389
  0.3734047505500006  0.2536068371305941  0.4753701345087818
  0.3725313560013905  0.3813587275530558  0.2070422418398356
  0.0224715048609397  0.5009971580237303  0.2195646866771019
  0.0726049701660999  0.0033068629456862  0.1388847798281659
  0.0134183641555408  0.1197021444805880  0.3208885188432979
  0.3228605662082487  0.3707204505800516  0.4742771943138518
  0.0727694873614552  0.6238336741203124  0.2165094946791675
  0.0218756573396937  0.4999390471371191  0.0548846784027025
  0.0718102920259479  0.6271934992485845  0.0519509700990172
  0.0012434908891101  0.4949735827832162  0.2300003630887177
  0.0535107737537668  0.6315159993032590  0.2442498060247580
  0.3219651919313681  0.1275837860461002  0.8047153957627687
  0.0622438771194705  0.0041054760168344  0.3254239322031770
  0.0911606771344771  0.1191682788077882  0.0305300338004598
  0.0431688610568936  0.0001987852136881  0.0366358543339867
  0.0520400353509968  0.1244434769941804  0.2416514467527150
  0.3714421931844061  0.0032823081933287  0.8003390987933826
  0.0319138310437051  0.6319986108751598  0.2883303712729057
  0.3007460791232973 -0.0014127186191126  0.6787282753255860
  0.0531512202968785  0.3746325271079443  0.9122989556155321
  0.3132781025992643  0.3782199695558328  0.6545068540735616
  0.3902320162438364  0.3764312380933429  0.1447071527361012
  0.3043009080520039  0.2500546046224378  0.1226834175440747
  0.3537439825229886  0.3719135002330839  0.1211040523561551
  0.0224732213002610  0.1225918403093529  0.1378367529536745
  0.0402289574421849  0.5022213300318001  0.1481123974135055
  0.3799126624362881  0.2615381921746717  0.2831440777603801
  0.3925870726106659  0.3786594600001699  0.3755345186185114
  0.3403180259338817  0.2494137162777054  0.1530445064268659
  0.0046103343100973  0.4976169905678257  0.1203169967954392
  0.0541881065986194  0.6288008224709376  0.1225481006899800
  0.0814409881237671  0.4927645299001521  0.2885017081249871
  0.3310689338629192  0.3683290804632520  0.2907972575810416
  0.3625548945810713  0.2599222101600824  0.6634998590273938
  0.0900287524355059  0.6239736678010008  0.1471046130544724
  0.1112866083278952  0.3756858690126573  0.8756149166738377
  0.1838792606073896  0.2498860405113153  0.7365498177498391
  0.1523825918155277  0.3750041921043666  0.6833480813084196
  0.1611112778491959  0.2502444211801291  0.8746485146105464
  0.0111913763734128  0.1245286155015195  0.2079500422090856
  0.0611905629035299 -0.0007114470965217  0.2082665012487311
  0.0338325277845721  0.1253753386173882  0.0691051165928798
  0.0838396324767480 -0.0006699412034770  0.0692738173853172
  0.8522271742225411  0.1237961351891578  0.0161601484140983
  0.9337301478312927  0.8743592762515476  0.7341765931390122
  0.9836928676065300  0.7526778040005317  0.7369747949568012
  0.8607564904959604  0.0003407501557831  0.2086362128816455
  0.8115399656414377  0.1245687679746482  0.2093584281957388
  0.1515058464377035  0.3700856128049257  0.3446738339283077
  0.9115452619476762  0.8754220701621337  0.8759726577654946
  0.8336666193655971  0.1235133752158920  0.0672929186569963
  0.9520761045289281  0.8756275255077240  0.6814715023523464
  0.9839459979259497  0.7520348657509930  0.4031594304476114
  0.9338067757429711  0.8761142378199461  0.4025914177975501
  0.9112459092632866  0.8757562050413760  0.2091460072623850
  0.9838490023938226  0.7497379522380925  0.0673751370208368
  0.8515442078875609  0.1207238473037642  0.3441354202517232
  0.1519143558449063  0.3755318266734435  0.0139082234026594
  0.1607131326872302  0.2491179885780535  0.2093325900278184
  0.9110827172012630  0.8738741185836592  0.5406334946592438
  0.1116648933855013  0.3743521686200342  0.2086984233860421
  0.7337417497399078  0.8745891156934261  0.7355712708009914
  0.7838967641414061  0.7504444404425034  0.7354897384207646
  0.7108574405182984  0.8747099016465294  0.8759384418351405
  0.7613389058444198  0.7494327286993662  0.8750976425918955
  0.9337591442528432  0.8744675725902226  0.0686893270622063
  0.1838610793984334  0.2502066003566319  0.0685364741491639
  0.1336591048644095  0.3750684262830608  0.0669999040087551
  0.7517520632133371  0.8751018601921133  0.6803630560246707
  0.9614330661477665  0.7511934871710250  0.5414084653724401
  0.9606719719976837  0.7519144287812827  0.2089422300856880
  0.9515501761404317  0.8711127155085935  0.0105788513721613
  0.0336123973852009  0.1248817500395402  0.4012492907788913
  0.0841249160489406 -0.0014240848485955  0.4030052619757172
  0.0113354153542780  0.1252129195360411  0.5433713354696600
  0.0613405207827890 -0.0008180972156188  0.5413728552654729
  0.0518300958258574  0.1249871956761442  0.3478535580118867
  0.1614738386960180  0.2507562664554560  0.5408690844218658
  0.1107293137407553  0.3749837782163241  0.5382334457240849
  0.1839431599476155  0.2490909618183800  0.4023209849317576
  0.1336927986946313  0.3758755808825207  0.4027455969166235
  0.1431605814981763  0.2489046986931608  0.5966332562753663
  0.8841418702454259 -0.0006863607231088  0.0697514340534953
  0.8337981795254029  0.1246529438675371  0.4017351062698892
  0.8839119192142519  0.0011134974104446  0.4018942840282975
  0.0517446340389271  0.1253743229788254  0.0139245392281171
  0.8115603769085376  0.1239224176780402  0.5427651492850284
  0.8611715207051795  0.0002729712850456  0.5395440075002014
  0.9515751604982230  0.8705760709490781  0.3446419846802182
  0.9605951142277804  0.7503269480826674  0.8756441140657533
  0.9521268063733446  0.1247192235025258  0.0150520801402401
  0.1107513137491428  0.1248203835524537  0.2107599627272382
  0.9843618639878923  0.4999356638890504  0.7341002899079725
  0.9840885480479119  0.2503440917591213  0.0694527846114459
  0.9111970897275811  0.3742639319475985  0.2074589244330535
  0.9612824761286912  0.2491554467636560  0.2073498210414974
  0.9518525316212751  0.3749185436705089  0.0137512290511354
  0.9016339743211538  0.2449327694172582  0.0103714640189725
  0.0111620634591917  0.3753663967110460  0.8755975018576427
  0.0842205238756741  0.2486233479258955  0.7350762313790041
  0.0335420593655635  0.3750719906481083  0.7362651295934314
  0.0933568734109404  0.3701008659083352  0.9330119677674047
  0.8520698205965421  0.8749435312147293  0.0153730455056027
  0.8614083305560994  0.7489363153949921  0.2058423929463346
  0.8114160366687084  0.8754229357690344  0.2090214069244834
  0.8840668128051048  0.7494540715064839  0.0685877025928182
  0.8336759151964108  0.8752068745074719  0.0680817071395183
  0.0338211858185613  0.8750859138290300  0.0692735574600496
  0.0839904315858054  0.7503484889850269  0.0686707649278478
  0.0113259300358859  0.8774317215152567  0.2073057760311614
  0.8338957452780058  0.6249720284793185  0.7370374785388266
  0.8839099215702539  0.5006273655793070  0.7366209684320623
  0.8113613253621665  0.6234473645857060  0.8753584554099321
  0.8611001308322636  0.4999361157268143  0.8750533978153103
  0.8114577328012547  0.6256875205931871  0.5430536025762831
  0.8843731020903211  0.4993464468042840  0.4002682501235635
  0.8335777197706910  0.6260005047123643  0.4020233169433197
  0.8931150455628255  0.6253779353966240  0.5952886133733787
  0.9843703105405122  0.2485437760685112  0.4011993677634434
  0.9112934660575321  0.3757367544583777  0.5433519823797567
  0.9610460173683780  0.2496255095923750  0.5422912849376234
  0.9516376111385413  0.3748833051886711  0.3479981302658601
  0.0614516823093655  0.7510241351903230  0.2078131090628006
  0.0428980020470625  0.7493618727134773  0.5959092932422360
  0.0839866634156148  0.7520193248037037  0.4023553514638975
  0.0111252543593328  0.8754051739609687  0.5421691054544014
  0.0612090984629273  0.7492936275931089  0.5415504480109253
  0.0514884502373943  0.3714662097125187  0.6800363047230698
  0.0610834169647193  0.2496796388191839  0.8743851503257407
  0.9338238012656115  0.3754491436246490  0.0688179253218945
  0.0518125803124719  0.8747777789181945  0.3478119230949807
  0.8514382656513320  0.6301588746106515  0.6773364182762027
  0.0336894471566659  0.8760966130036851  0.4024640128737849
  0.8614900062934399  0.4991570472214926  0.5402578409944910
  0.0518169247979169  0.8752068441279686  0.0138130966428223
  0.9840482945189429 -0.0001464658357835  0.7368364659301279
  0.8513056432802069  0.8752850683352582  0.6768433077418426
  0.8611452398332734  0.7499225504774046  0.8753315016603979
  0.8104567524067160  0.8747441261574136  0.8766464813026276
  0.8837350935645235  0.7476071192342221  0.7377763465999185
  0.8337883836226039  0.8754300236792110  0.7383265880008900
  0.9114559938981101  0.1253125772786392  0.5419575571574629
  0.9610823582568335 -0.0011930490463602  0.5403980612004310
  0.9519237902317831  0.1248630119706308  0.3471170389703797
  0.0515733548771013  0.6216479612026642  0.3455489039924191
  0.0613798114356728  0.5013138885176892  0.5406279218420161
  0.0110128086738965  0.6252791712370956  0.5412758511770065
  0.0839841749310216  0.4995073350506332  0.4031174239752451
  0.0336569836660470  0.6260815527843424  0.4026044949967759
  0.9338456940444789  0.1247297720429668  0.0691289033342631
  0.9840446978267743  0.0003967306490996  0.0685576598628821
  0.9111087790538289  0.1248324984287152  0.2069168156507820
  0.9614763365187475  0.0007619496687771  0.2070832370100999
  0.9838873405278930 -0.0006276812668566  0.4032625453658567
  0.9339031840296408  0.1258241155801890  0.4017734113958637
  0.9929609581870673  0.1250684793915341  0.5966632508889906
  0.7337738341006216  0.8741186738945307  0.4024909005483182
  0.9107332901791912  0.1243869097793939  0.8768661218090652
  0.9613117329404377  0.0013412293053987  0.8745139143770230
  0.9516360639807784  0.1299454059664720  0.6777557010843309
  0.8515266066894028  0.8788471919798648  0.3440824405921689
  0.8611091957481033  0.7506351449133742  0.5426350162693816
  0.8113170438643661  0.8748477021559220  0.5443488337214207
  0.8842888852003506  0.7512440881150179  0.4000095283608298
  0.8338334308983232  0.8751757699224806  0.4029124966235713
  0.9337627048919356  0.1252803864329748  0.7355203151467801
  0.0518478791603850  0.6255831013043724  0.0144283314749050
  0.0106028046925894  0.6265448225268798  0.2115526920358626
  0.0836762871166864  0.5019033880320334  0.0693280616623937
  0.0336095882432186  0.6248631903499767  0.0682735183723866
  0.0336361961816667  0.6255957262703822  0.7359301834451488
  0.0840649538870816  0.5006081779138920  0.7351108873752858
  0.0112403621181720  0.6246866839714748  0.8759233800653352
  0.0611938263465748  0.5005979009837278  0.8753069969694345
  0.0520073958957308  0.6242833055941063  0.6827142164356588
  0.0606255434226238  0.5002109780721522  0.2095983996018432
  0.9336198906419014  0.6255738927783309  0.7353976764035833
  0.8516307298110679  0.6250884087812829  0.3481093263078248
  0.0337737162170039  0.3732320424115416  0.4010753801662685
  0.8840601961135462  0.2508473571409354  0.0695805565153908
  0.8336907388363309  0.3749552843268342  0.0685474833675555
  0.9843362725070195  0.5000587720162173  0.3996916119672647
  0.9115334446640876  0.6255820931967643  0.5436896901525947
  0.9609408128347436  0.5018044325272677  0.5413310150723282
  0.9519751889773638  0.6287851886092817  0.3459507906980057
  0.1337747210805350  0.1230602366716280  0.4022227715325749
  0.1836948855678173 -0.0003849219294019  0.4023564718187946
  0.1114918597675323  0.1260922911701205  0.5423947967901849
  0.1608978388337422  0.0006041688934935  0.5420857800328968
  0.1515858803800998  0.1296000753089228  0.3451248790111209
  0.9338289175901036  0.6247811043223324  0.0689400453134355
  0.8015697662695197  0.2551272948770424  0.3445603371339335
  0.8520904085704878  0.3743986554369220  0.3482724893574870
  0.8610750577694594  0.2496058721811756  0.5435487510536615
  0.8110110992803801  0.3755429320254598  0.5444989740437398
  0.8838363350697406  0.2497827925338996  0.4029277427191882
  0.8109383404816499  0.3735173584525158  0.2099199793481507
  0.8613831243585911  0.2503194445159814  0.2067493786162138
  0.8521357934282190  0.3760049106334936  0.0149528980077792
  0.9338422701097452  0.6238248993271414  0.4007863961512288
  0.9112372434705349  0.6246746284755070  0.8754999050121266
  0.9614378957414258  0.4986602349415946  0.8739702447308794
  0.8508749337511705  0.1222221781934727  0.6750960056349875
  0.8611610845816774 -0.0006441562952898  0.8750052334999829
  0.8110926901482408  0.1252175308774373  0.8736507631389797
  0.8842616320050565  0.0003229830714260  0.7339771352400919
  0.8339126140921466  0.1242296512476515  0.7386670576327979
  0.9515903680083702  0.6211228025432236  0.6790975660458580
  0.8338214138228246  0.3745216420644909  0.4025847795919104
  0.1335792858018866  0.1251941524620112  0.7357504611097493
  0.1109387440850510  0.1252295905551867  0.8749951337498496
  0.1611275991026389  0.0006001241446033  0.8750019567813866
  0.1516140957904670  0.1193545844902133  0.6788337145580748
  0.0514590092025314  0.1303601200237274  0.6786038145741623
  0.0611270766999429 -0.0003174624144656  0.8751553590657719
  0.0111667867579026  0.1250552641859201  0.8755282670928954
  0.0837416916443962 -0.0003062761934601  0.7367452601047014
  0.0337789720487765  0.1241774082479929  0.7376043159486967
  0.1837134704497619 -0.0005182961987394  0.7351818520481500
  0.9333936756458415  0.3741550211301287  0.3996185238389329
  0.9839005194054138  0.5001034369128653  0.0673885605640322
  0.9614489807960556  0.4994910985723258  0.2062523308176516
  0.9510365416300026  0.3759723891461578  0.6746261716071934
  0.9019223050937616  0.2488520987572830  0.6813132595873670
  0.8518442272214930  0.6247097767100066  0.0142269492473755
  0.8615303583479601  0.4993638371751979  0.2070789392715249
  0.8109234227151910  0.6258313933686749  0.2097246358036990
  0.8841729551923161  0.4999498139639502  0.0692122833461503
  0.8337209194108921  0.6256436756054012  0.0688555110376006
  0.8433591287034583  0.4998814943664304  0.2618954921110125
  0.0518432811176689  0.3801426165764819  0.3460589603416572
  0.0336389398215453  0.8755140108405546  0.7359567217363013
  0.0838807713957081  0.7501295497916940  0.7378500702010052
  0.0111211052387002  0.8750696041117400  0.8751595744078170
  0.0609632959026338  0.7503365234263575  0.8746949320234330
  0.0517493628389471  0.8756527370745646  0.6820218003845149
  0.0608463667402137  0.2503567272181717  0.5423113163198860
  0.0113937138021919  0.3750628034403025  0.5444574062697493
  0.0839611532898054  0.2501883357978974  0.4025222161250498
  0.9611142464387832  0.2498182725248532  0.8746472471499818
  0.9114144085521934  0.3759404046967623  0.8744297106827422
  0.9837146922495738  0.2480705246297021  0.7369521409014319
  0.9341483696996534  0.3758350960953006  0.7391719808731360
  0.9514480698685321  0.6291821149578382  0.0100782896358824
  0.0518400539625086  0.3748064336394575  0.0147926161205126
  0.0615803735772573  0.2494428844080067  0.2078631849823478
  0.0112150884699416  0.3737619871478582  0.2059951743464128
  0.1336989685154635  0.1248850874626149  0.0680264077493195
  0.1840374430792132  0.0003246985769114  0.0698697794135213
  0.0845202454745895  0.2492410442337936  0.0670628350986088
  0.0337166996234153  0.3757835639903117  0.0684441321435474
  0.9110969275606662  0.6241495994965620  0.2059649156440101
  0.0933534682855540  0.6202518477304386  0.6009826644940832
  0.8517009312117293  0.3712154435396374  0.6788037902245392
  0.8613574942363713  0.2504722434641766  0.8759285144994288
  0.8108887379072963  0.3760164169139696  0.8735952073276460
  0.8836529155812064  0.2520530032293721  0.7364508241439133
  0.8338072195659760  0.3754616222123300  0.7360621186843574
  0.8429124732992376  0.2502254369942284  0.9290739836073312
  0.1614256530929850 -0.0012567822907272  0.2075083399711845
  0.1519937521925996  0.1245239035306997  0.0145948481351867
  0.8014320844300655  0.2549486929067084  0.6774896988821448
  0.7841097007967570  0.7502842484400505  0.4038791928231464
  0.2336477314533171  0.1256853430073754  0.0696894961714015
  0.7612723623141434  0.7501517726381224  0.5413692065365523
  0.5516078299785119  0.6201212169232971  0.3444246090277304
  0.5612335078028164  0.5007734862424231  0.5420334470691797
  0.5111388085364647  0.6244482292941136  0.5416378892753790
  0.5838385491699227  0.5021734079531693  0.4031689130840169
  0.5339280056038912  0.6242009186637391  0.4029102958127582
  0.5930083704327176  0.6260962630529913  0.5965736929664283
  0.3428051863110097  0.0000165828370941  0.2617657655395735
  0.3336302515280551  0.1251334494778172  0.0696242798775055
  0.3842473813081442  0.0006332100531389  0.0673390482875807
  0.3109188076946224  0.1245801743635086  0.2075175727996754
  0.3612031938473696 -0.0007035556937221  0.2072424440468685
  0.3516046087278502  0.1242961882948870  0.0139677919793642
  0.5520699654124327  0.6251300474618147  0.6822064243465296
  0.5014941845154720  0.4973725012548862  0.3435723024288181
  0.5611765537503512  0.5012299509427617  0.8744727850541478
  0.5839757214283967  0.4993833740771104  0.7365293016954236
  0.5338657082893575  0.6225640312197199  0.7360778663732074
  0.5933896906909901  0.6180280443722614  0.9334329753359201
  0.2334166269368242  0.8761925889569198  0.7358605987604701
  0.2838911144241418  0.7504659300026664  0.7349090677621015
  0.5520200249973556  0.8746641723420027  0.0147280914308554
  0.5611897742942140  0.7505987636889563  0.2072237430361809
  0.5107036839453212  0.8763435860531915  0.2093595780503623
  0.5837820211261174  0.7509685330474264  0.0702049136209803
  0.5337932988243720  0.8748830951251902  0.0689496224231021
  0.5930824381066807  0.8754647108925284  0.2636041646389859
  0.2105616382022158  0.8746540866161564  0.8774407306014470
  0.2610270085332391  0.7486636543875337  0.8744833392188730
  0.5114242685969930  0.6241381632540001  0.8759197963100454
  0.2510222242633525  0.8702671594013646  0.6775874602789842
  0.3513425088034303  0.1254163484769267  0.3476904702765508
  0.3106651715415895  0.1240445713891812  0.5389191941812992
  0.3612358805861142  0.2493047849293800  0.2065085046856023
  0.3514266224581667  0.3747383447748138  0.0131468232581012
  0.3016098617848383  0.2495516196738888  0.0141865898201525
  0.5014423078399401  0.2544225238052791  0.3440971147153484
  0.5514571113891386  0.3791547729220656  0.3444526563556355
  0.5614317879020192  0.2496922935540783  0.5413481581782552
  0.5111451404178331  0.3764049894346121  0.5405545976706496
  0.5844709160052912  0.2519653964166405  0.4002998990722527
  0.5338739531848327  0.3741607998772767  0.4035353550110068
  0.5428521783901260  0.2491598805105703  0.5946391627618492
  0.3334250921625391  0.1246078746811409  0.7346805423789923
  0.3837680602626293 -0.0002420847956204  0.7368451255516191
  0.3109170650636022  0.1245865843438729  0.8756357618709905
  0.3611909063408220 -0.0002300790673484  0.5406821026921670
  0.3610818366326692  0.0014388782554980  0.8734102542039368
  0.5518251677076630  0.3749845791441853  0.6811095910443132
  0.5611922342502016  0.2481644673873803  0.8740173431755576
  0.5112051335405723  0.3747312071218811  0.8753171734939162
  0.5841052995770388  0.2499520100478300  0.7363536619211662
  0.5337130312392121  0.3746198562211444  0.7355238661483107
  0.5519037147969494  0.6246887796374546  0.0148383698678471
  0.5609445616933002  0.5003418310711398  0.2093303203771355
  0.5116153424045392  0.6243523585161549  0.2080780277859880
  0.5843413440965280  0.5016884681065301  0.0687196240837829
  0.5337378475647139  0.6236517816384300  0.0681487445354913
  0.3431665915484704  0.0000508594278817  0.5951444082032809
  0.3332929778546761  0.1253216281264799  0.4014059308601114
  0.3842548872167399 -0.0011971570241954  0.4001573171210988
  0.3521198181847623  0.1259227486507342  0.6833388880905851
  0.2016150607955932  0.7498988573516022  0.6804992459961422
  0.5520669836108533  0.8747599948600133  0.3482824675119844
  0.5612040425749096  0.7496054732144339  0.5418212964333132
  0.2112429574171290  0.6228684042740861  0.8745599330205985
  0.2607252660633329  0.4996406624134478  0.8747365408191444
  0.2512897119642928  0.6300225384044584  0.6779137297820602
  0.6518081250905754  0.1255016347136132  0.6816392714636937
  0.6612290054866899  0.0014308928394515  0.8748959823819270
  0.6113710541615288  0.1227420285257352  0.8743707210011106
  0.6840923104692159 -0.0009572134884653  0.7386760899109724
  0.6336782903087405  0.1245892346481520  0.7356167079306949
  0.6935332856688857  0.1185627978237590  0.9338532715112118
  0.2334436876691939  0.6251820077688375  0.4014836548916039
  0.2833512256633077  0.4986711579969849  0.4007135749362177
  0.2111732983059059  0.6244389354224524  0.5424633526765252
  0.2611458509577799  0.4981090964278252  0.5409283430261512
  0.2833885804298351  0.4990094292248354  0.7377540341237915
  0.2510886837688974  0.6296319930808427  0.3426950489517710
  0.6615041159222156  0.2517547445598649  0.2086053022215851
  0.6115522604918392  0.3779920607606788  0.2086893605723500
  0.6839853341022913  0.2509669694558125  0.0696926757546875
  0.6340219398575839  0.3749229473038271  0.0685595366383548
  0.6932030151710001  0.3738990164236094  0.2635657459323150
  0.2334976965146548  0.6250140496283828  0.0679039170405764
  0.2838234798409588  0.4994848402248687  0.0696755027270973
  0.2113392106201933  0.6258596195661145  0.2086920867439560
  0.2612558298261317  0.4978653527365280  0.2073966261489141
  0.2516071394946218  0.6248775114183894  0.0138526562034072
  0.6522205190613506  0.3751360071622118  0.3484502430003016
  0.6616373639582043  0.2496977289644912  0.5418812023146853
  0.6108066639577266  0.3735517804021100  0.5447006799232132
  0.6522739850523297  0.3749935101627117  0.0152353566706327
  0.6339421836815742  0.1253818104071787  0.4022373665842572
  0.6839434777999480 -0.0009625611664995  0.4010712907482705
  0.6117305870372558  0.1254770021538544  0.5420036347215246
  0.5109705149795848  0.8742042270875158  0.5442242867762381
  0.5839829798865322  0.7506629480272659  0.4025934084535903
  0.5338504925102455  0.8750593053171570  0.4022995387357730
  0.2935719927101261  0.8768947249383544  0.6034114149043860
  0.2336655121489489  0.8750207930704261  0.4029677014675680
  0.2841459961506341  0.7494803025648951  0.3985330519734638
  0.2112747656045952  0.8751529298965725  0.5424692874809484
  0.2606274141112239  0.7499246481469645  0.5414999248153789
  0.2513513016825617  0.8712647193459823  0.3444624007069577
  0.5521573792390262  0.8747878238811994  0.6824533277941867
  0.5612931027130114  0.7502504358477629  0.8745645247467078
  0.5107530146029555  0.8745783384765394  0.8780145625804303
  0.5841556803881667  0.7489801702176359  0.7368716505854956
  0.5336805530701335  0.8751079005615640  0.7351715862685121
  0.2335213412470410  0.8737969620489832  0.0685062686575294
  0.2836026974209854  0.7494907531478633  0.0691930238819929
  0.2111144608466309  0.8756826828720806  0.2090397024427701
  0.2605387908302349  0.7502851036603932  0.2084623792294529
  0.2513724380597288  0.8795175880294114  0.0118677209029776
  0.7110030532466094  0.8747468874973255  0.5432902728633042
  0.6518054797749948  0.1252826823104976  0.0136578015273161
  0.6608641257526795  0.0002124964684449  0.2096632251223707
  0.6108381430854695  0.1266365144724434  0.2114699605946064
  0.6842722767147430  0.0027369067962063  0.0682485387091055
  0.6337042738622934  0.1234826252759730  0.0682962824655740
  0.2927152027337094  0.6243086989229603  0.9308851627174353
  0.2337482881996941  0.6242869896430048  0.7369228101857819
  0.6517709914401814  0.1212458080006703  0.3454288432781992
  0.6614232401921091  0.0002568239830710  0.5424057891831393
  0.3110031556248508  0.3743717023016179  0.2084707917217072
  0.3837373017064233  0.2519717385881805  0.0676125896224536
  0.3334033738872825  0.3754187240058983  0.0682273525882147
  0.5336238620412979  0.3756193241959039  0.0684878146656990
  0.4115694236672927  0.3731294045849065  0.8753600976274367
  0.4840461501076538  0.2499236823624994  0.7365164422290910
  0.4336319872529858  0.3739705752534651  0.7337948569932322
  0.3334430303267350  0.8750303610457058  0.4007864829389960
  0.3836880217705745  0.7498164269510815  0.4028492894996767
  0.3111823241790835  0.8752875921035563  0.5394258527121147
  0.3610005362702143  0.7514057165406874  0.5407099275986655
  0.3518919471547960  0.8746846996202113  0.3484034424375505
  0.4013495455113753  0.5050641069559376  0.0109192722949597
  0.4520166856574539  0.6253328664764723  0.0151430627602035
  0.4614406125612601  0.5003159697403883  0.2086298369865213
  0.4107501500263563  0.6268926144989607  0.2080981527706486
  0.4838822370940579  0.4996395147930946  0.0682494004270380
  0.4608136067121192  0.2500610670379584  0.8758626093503601
  0.4337148380535215  0.6252627615723204  0.0691895873958408
  0.4517445614819369  0.6253509842603237  0.3477717369287390
  0.4611644844570849  0.4998271497442960  0.5412683694763302
  0.4109329820333211  0.6244522706381802  0.5405882994291233
  0.4836899972014508  0.4991078207253107  0.4035731647094329
  0.4335683705967809  0.6255438623299265  0.4021797606456118
  0.3836361573996471  0.7477843037619866  0.0674409678877668
  0.3107735735130246  0.8756713597283988  0.2063586602725494
  0.3612165786931188  0.7502708158867661  0.2074643457389164
  0.3512682629235593  0.8710204497033326  0.0111397603144420
  0.4520252154865972  0.6244741091227251  0.6810841214108643
  0.4616141052354686  0.5008681482821169  0.8743162373695611
  0.4106093695158595  0.6254396164956609  0.8775445204196136
  0.4839792277844601  0.4975969810351937  0.7373261735906281
  0.3335567414797181  0.8753244279277249  0.0700130607286501
  0.4521029804894810  0.3756655406606310  0.6818049178280129
  0.3520495781120285  0.8735065216075788  0.6825565006216278
  0.3605957506099690  0.7511772562512333  0.8756100242500422
  0.4336707893122326  0.1239625653468745  0.4017758276981480
  0.4835780735519720  0.0025590789847665  0.4020521859679876
  0.4109845734804212  0.1250566513033750  0.5428105548557838
  0.4611125075170575  0.0009907825004760  0.5419835522866427
  0.4519600209705638  0.1258260173148636  0.3483807654360407
  0.4518441861890489  0.1250772755103740  0.6816276211783684
  0.4614098824797827 -0.0004576517243260  0.8747861929096605
  0.4109910703457784  0.1243738773692492  0.8750937434972256
  0.4840009295433262  0.0004691500643847  0.7380866188626928
  0.4337135776775106  0.1247658326537223  0.7351587712670580
  0.4338701097357827  0.1250248929825909  0.0695021863444080
  0.4840603246338471  0.0002717203640549  0.0692249914295929
  0.4109713381207679  0.1245673484138900  0.2055608297517175
  0.4513956225087652  0.3700584276763882  0.0105418866922347
  0.4611328339224680  0.2498743013977900  0.2076574934331408
  0.4107741012052487  0.3752762631709550  0.2097345196247267
  0.4838354849162156  0.2506940946896801  0.0689374047559052
  0.4336965053644852  0.3757785723885249  0.0692646822532563
  0.4613200302374270  0.0015665914406951  0.2082205115317183
  0.4517417112875113  0.1290111834781694  0.0120313649143436
  0.4517202493300337  0.3754677690729252  0.3478300582201508
  0.4612476530817970  0.2507936501895822  0.5418135041095726
  0.4108615649050782  0.3753257729350008  0.5406005061213148
  0.4839221848092806  0.2494128728457030  0.4031431061084368
  0.4334921581518549  0.3750746203799267  0.4018938543968604
  0.3933996697579587  0.8802083963110098  0.9330238021555101
  0.3334516565323720  0.8751382244919812  0.7347516247778820
  0.3844597827362065  0.7521554618190515  0.7339702062966258
  0.3109144928812556  0.8759466377085189  0.8771126305375410
  0.4335904722565767  0.6250631579799569  0.7349264155208366
  0.6842073855617804  0.2503846537344825  0.4033438436320561
  0.4432121491356715  0.5000988065678004  0.9292800823562620
  0.3841533332512634  0.5001610658156197  0.7365349990309769
  0.5338320500507575  0.1250897562328913  0.0684708120749538
  0.3923193802131779  0.3814484609716018  0.9228474768538611
  0.3329910510473118  0.3752690957390009  0.7342525356558339
  0.3844045008860332  0.2474547098413729  0.7350083660632227
  0.3108140480612480  0.3740915716571579  0.8756683842784958
  0.3606964968955192  0.2479566721496227  0.8735401214420528
  0.3514133989365517  0.3769496594113346  0.6814471930057904
  0.5015400305674479 -0.0053293639407581  0.3430551941596079
  0.5516592727393825  0.1249590502903317  0.3476452604751502
  0.5614065601663424  0.0001932739915166  0.5424972031078935
  0.5108079981369974  0.1265392667856390  0.5416965892251028
  0.5839241510318690 -0.0021620807353835  0.4038546518261832
  0.5336551694929446  0.1250942937699601  0.4021082146181136
  0.5837889074592360 -0.0011100115728822  0.0692098348492694
  0.3336119424478052  0.3735782746200264  0.4033177753649771
  0.3112074244637847  0.3727666966632383  0.5408499436582893
  0.5518936428758073  0.1240062142456724  0.6811252103118307
  0.5612442933057201 -0.0017308273508049  0.8740738738475944
  0.5113741899771828  0.1258733995096626  0.8746749341438914
  0.5841247888608121  0.0003751252538104  0.7365407326383219
  0.5336362776113832  0.1252818580572741  0.7353954283263255
  0.3610339788761032  0.2482118356036748  0.5409631921022502
  0.3511678467689303  0.3786921914226006  0.3447532193977558
  0.5019753685524145  0.2493435965609130  0.0143381180675975
  0.5515929480080575  0.3742128248185360  0.0146718861708825
  0.5614278158190470  0.2486847517619925  0.2072113847004653
  0.5107698953010441  0.3744786808759290  0.2098385083297219
  0.5843851538419890  0.2470211774692117  0.0670232474001221
  0.3840067983963466  0.2498350492831211  0.3991998548290567
  0.5117435761852636  0.1252322799606368  0.2072044064530339
  0.5611570658967064 -0.0021015221769606  0.2081586094017206
  0.5517352162030880  0.1249821957823448  0.0132440752786759
  0.3110170352821732  0.6250992844216230  0.8760178685614167
  0.3612340336787692  0.4980252482668045  0.8742600517445596
  0.3516217283028910  0.6223733137704724  0.6826288311137634
  0.4519601182182210  0.8751250746079636  0.0140836074903312
  0.4611491117162307  0.7501024431988200  0.2076469474183785
  0.4112131765624454  0.8766131395738374  0.2084336880176944
  0.4841655939034221  0.7495995948027805  0.0702345926138414
  0.4336771307419389  0.8757455302326059  0.0676076228848825
  0.3333892650549664  0.6245824400383760  0.4023858693418752
  0.3835056028011603  0.5000983190826250  0.4043715125479257
  0.3102457053794179  0.6254045118395679  0.5438310913245910
  0.3610300749093426  0.4994484784101811  0.5404709140998033
  0.3512802746645538  0.6210283829841516  0.3455152813122046
  0.4515489395250241  0.8746604134960042  0.3469900689859977
  0.4612783027170738  0.7495100515869343  0.5410509239613114
  0.4109159323487756  0.8752422546464502  0.5422969380787819
  0.4845959598542552  0.7502094788576796  0.4007211788555796
  0.4334299243479469  0.8749745900331269  0.4016969949176830
  0.3015113236941446  0.4999954317786722  0.3460111504213461
  0.4517885186103479  0.8740995816936932  0.6811004025670943
  0.4612801730049722  0.7490004988068011  0.8747466789778137
  0.4114010172798341  0.8748022551154054  0.8744723934779645
  0.4846552516861984  0.7496650899099733  0.7334697120918923
  0.4337675455615863  0.8753652251780619  0.7352098005467076
  0.3334203897894248  0.6237663842485696  0.0685406757006502
  0.3835118388397822  0.4996045041116438  0.0673716871042885
  0.3110110994962083  0.6248896736294832  0.2085748315694363
  0.3603113151310299  0.5009842640462306  0.2079726695456797
  0.3511429526826187  0.6299335549329814  0.0102426187697611
  0.3330866914601137  0.6251927695079961  0.7340982335360049
  0.6338152672267576  0.3774317363643243  0.4015701703615101
  0.6018297714979984  0.0000385144712579  0.0123483923135641
  0.1610161865071952  0.7494705122898875  0.5425786686435140
  0.7842268311262754  0.4991308491574015  0.4052851653385796
  0.7115082351157666  0.6246475620577616  0.5414442549653065
  0.2334239264477234  0.1243929539433259  0.7347214507452391
  0.2834137954739780  0.0013194573181532  0.7366514774913653
  0.1507777984198488  0.8749482993395525  0.6747584488254333
  0.1610699309632444  0.7491332857759425  0.8751201389660053
  0.2112814799672935  0.1262762048937082  0.8756213613900913
  0.2602616459115603 -0.0001223040690791  0.8765449039755102
  0.2513460048862221  0.1248138331185157  0.6806259980860317
  0.1110332603139361  0.8748677318821345  0.8754163471201595
  0.1517637148067260  0.8750411035478434  0.3470880657467097
  0.6514589720804989  0.8801382486236704  0.3437267537364903
  0.1835885549640852  0.7504304149487224  0.7355201419012981
  0.1336673903352788  0.8750099807443740  0.7383066035781302
  0.6614926941917646  0.7510339935745614  0.5408201166936698
  0.6106563978670145  0.8751682252830219  0.5441862310887323
  0.6840830062806520  0.7506498798583886  0.4020662257488153
  0.7340669756391377  0.6245564061230601  0.4037122606216827
  0.1518538490437069  0.8751119345182394  0.0148513361119032
  0.1611282058711103  0.7499526512360213  0.2076248907771077
  0.6338959289935036  0.8757086529667534  0.0693437941353344
  0.6839478287658473  0.5004418391854991  0.7362596427356205
  0.6338408502624742  0.6256947782091214  0.7360738222883242
  0.2512463417850117  0.1202138207385159  0.0109884145382276
  0.7613363566145577  0.0003720657943962  0.8753295459600107
  0.1115866676838632  0.6234505632262159  0.5423573865897907
  0.2104853383167909  0.3744662917180466  0.2100579614898783
  0.2608429716901528  0.2494963027960933  0.2072363773019551
  0.2517380836670201  0.3746321075476156  0.0143386933173911
  0.7612382450459446  0.5005352677968942  0.5423208695691770
  0.1839660046325218  0.5007973709399786  0.4031168381638414
  0.6516271626484200  0.8751211168931284  0.0152813503362251
  0.6615700823568256  0.7478156545831396  0.2078591741407852
  0.7518218461837060  0.1243358458242245  0.6812116722463033
  0.1338209060839118  0.6261979450085420  0.4019585190273222
  0.6115907128293289  0.8734388187845975  0.2081054231791797
  0.6845558538307309  0.7483767435921617  0.0688027984838552
  0.1430709512416526  0.5008359016077397  0.5954878489710769
  0.7010648023854621  0.0011615861160557  0.6739261178130577
  0.6020247975990002  0.7495044406942711  0.0141532071372374
  0.6337936097005126  0.8743189305606036  0.4031452361812495
  0.7519819000376530  0.6249528722600569  0.3489658843547465
  0.7021395204682922  0.5001266629679538  0.3484931535500803
  0.7021614776556164  0.5010123699490482  0.0142078507119967
  0.1515694198955038  0.6304267762852357  0.6786041091561811
  0.1611520792142389  0.4997748192552207  0.8745974861663530
  0.1110071184716180  0.6241524867245970  0.8761662147518132
  0.7520106637364458  0.1245619784893385  0.0152331267378229
  0.7612788383040270  0.0000373172196602  0.2085161103943485
  0.7106577219393932  0.1241750459229160  0.2113898853610620
  0.1839356542775908  0.5001743113391017  0.7364658925002969
  0.7519221793725416  0.6253147505992134  0.0142742276585603
  0.7840040118687973 -0.0002952924458415  0.0710909775836860
  0.7336763924609317  0.1263360016739095  0.0689633942229263
  0.7613633831397640 -0.0001991420049500  0.5414181229047347
  0.1335210812355765  0.6245408120400930  0.7355821842234971
  0.2837048496344497  0.0002167363671575  0.0685196884136597
  0.7339148911241193  0.3758265434920616  0.7364432796974233
  0.7520806301841670  0.1247126595813642  0.3483709692897285
  0.2112318726989876  0.1239829074085328  0.2081247211227748
  0.2612817325060091  0.0014192212922849  0.2074339584669825
  0.7839370662083872  0.2492584070644508  0.7375268084780930
  0.6114890967524078  0.6272516995202381  0.8742933792312330
  0.7110891699327460  0.1263270148979927  0.5426491459148595
  0.7613324906416283  0.5001150885800911  0.2093988936557778
  0.7520087669977710  0.3754438235995350  0.6820821063491910
  0.7338749382805537  0.6236688668421261  0.0693782193843035
  0.7613987080207929  0.2504651634145077  0.8747618192774425
  0.2335894037161806  0.1246651885779378  0.4022376355211174
  0.2835511250499669  0.0021286663754572  0.4025231230688293
  0.2111096350864893  0.1253166373960837  0.5414971128145872
  0.2612069863259108  0.0022795414498312  0.5401109036221188
  0.7112938151471512  0.3750397790139616  0.8748828663976623
  0.2017295792076692  0.0004338660744704  0.3470439955852109
  0.2517509638345340  0.1248097453305509  0.3477610274788543
  0.7838406285334621  0.5015999565751131  0.0691842714700333
  0.7841289941681995  0.0003278335817466  0.4037145833741919
  0.6519229768710955  0.8743347822110727  0.6815325201491189
  0.6612602978177836  0.7482454866160028  0.8747003937743795
  0.7112805558993912  0.6254629481024226  0.2096180800167816
  0.6111493866535694  0.8742818831578499  0.8748326724161305
  0.6840765816731001  0.7506068442686120  0.7353907237010328
  0.6337998755166778  0.8745071508173343  0.7358183830753561
  0.7338888533657865  0.1252084132363439  0.4025348661078419
  0.6612578182170882  0.4995263625038375  0.8741194337756975
  0.7429965317371852  0.2500782408776680  0.9284544075634523
  0.1614216521271289  0.4991268257193296  0.5408941113551240
  0.6520801995477404  0.6254296552016920  0.0150965743765429
  0.6612521035701983  0.5002016908398379  0.2080754708168928
  0.7614520063309453  0.2490879496171075  0.2087960931061386
  0.7518595529538207  0.3754163525571426  0.0146319249237677
  0.7841059815260749  0.7490678801430288  0.0698269977141604
  0.7116272844105036  0.8735567521633331  0.2098467234754467
  0.7613999481532973  0.7506585240070310  0.2090686728427880
  0.7113125728649384  0.3760048426040585  0.5414554956050978
  0.7521485438009248  0.8752177707405927  0.0154470395565693
  0.6111990613102581  0.6246226233505661  0.2086763748541457
  0.6839161699314357  0.4990736251887545  0.0709040183266026
  0.6338989065620664  0.6267167235804307  0.0693770588833568
  0.1334656459981384  0.8745712657388375  0.4003609344529229
  0.7839741710094056  0.2501215836750859  0.4034621655383597
  0.7113653024346650  0.1274712438741153  0.8734835438972380
  0.1615629197093583  0.5010680938194099  0.2077358876062693
  0.2932184820563236  0.3693904078596794  0.6010278103630247
  0.7116005690867269  0.3760392194685249  0.2076795452479254
  0.1104221665420932  0.6249401018911916  0.2084973640215553
  0.2515916248000082  0.3750760316256810  0.6812830807015349
  0.7614439684004380  0.2495968909602335  0.5421944386114539
  0.7520025642046856  0.8753512427318665  0.3481551857656243
  0.1106956846597344  0.8747004702269874  0.5465739242784332
  0.1839712451638187  0.7498826226757742  0.4027092432238174
  0.6518079969201014  0.3799050659077352  0.6794186343002587
  0.7340243802949936  0.3749720016248020  0.0699196249200366
  0.6612118561910124  0.2511701118792093  0.8740169337067399
  0.6107216351223693  0.3746102238043008  0.8756142308305697
  0.6840611205199812  0.2499557879226741  0.7361685827209390
  0.6339083433219780  0.3744843052795274  0.7368520116693101
  0.1337839652326976  0.3750280260905078  0.7352505738137324
  0.7845821031036575  0.2505532576222806  0.0675595998484737
  0.6931176455657326  0.3750107210353704  0.9294742733029332
  0.7517961639127954  0.3748001259893888  0.3475945440783818
  0.2335368746636196  0.3746889862581105  0.7357596561006503
  0.2840100593141665  0.2502613829067714  0.7351707648390531
  0.2109579080433843  0.3750437321643794  0.8749064525717648
  0.7339270948227868  0.8748557009911279  0.0686570732936149
  0.2611160263397602  0.2516337355707370  0.8749587122547495
  0.2335944369829240  0.3750402667004051  0.4022476572420826
  0.1518835887364823  0.6247622036631624  0.0144290303359617
  0.6840198668787031  0.4999431093827231  0.4039450701913873
  0.6118795256381645  0.6251646979746002  0.5408394161217293
  0.6016976038525749  0.4960248716248717  0.6774034043721830
  0.2835813252978517  0.2502801243194542  0.0692897378897752
  0.1338375230760614  0.8747307710333508  0.0689624034897368
  0.7337666987807275  0.1253859996426663  0.7360120426357989
  0.7339377122025301  0.6244537712246820  0.7362869124764481
  0.7613001402427455  0.5000633601496787  0.8749331897462690
  0.2336307768119500  0.3749643048464171  0.0692355686280430
  0.6340947082727300  0.6259940519772980  0.4019892992556732
  0.6931601702250115  0.6258593783235011  0.5965314813962146
  0.1839950390329477  0.7492305780988900  0.0701921543971176
  0.7838326580273064 -0.0001316886548293  0.7349434073332727
  0.7114471230785625  0.6226370709102271  0.8747285381820009
  0.7022005039873349  0.4993023484837858  0.6818800106223483
  0.7841305422115714  0.5006163641139533  0.7375033670860688
  0.6521476436220154  0.6254690888598292  0.3483280798408744
  0.6607506891572944  0.4995143308643692  0.5425850118505643
  0.6514929979151989  0.6205936697248597  0.6773084082163038
  0.7338332612194857  0.3756369826141133  0.4025591621813234
  0.1839629496469669  0.4998122266063725  0.0685458028185092
  0.2839421421308839  0.2498353407366760  0.4027361402954014
  0.2110738572336010  0.3748060224965516  0.5420031223394022
  0.2610096636088671  0.2506773014918871  0.5408537773297610
  0.1115875354929526  0.8744381062828239  0.2070342687399492
  0.7518565377520237  0.6255404356953103  0.6809229807488120
  0.1337785565983939  0.6251185973695886  0.0696342593655507
  0.1430331533675413  0.4998230840629834  0.2620455492230749
  0.7429888916364443  0.2498527744516015  0.5955909892015160
  0.1520980367355802  0.6253715611944587  0.3487621120088917
  0.2517553214112404  0.3749018957249676  0.3475207090405268
  0.0929737981315666  0.3772736530755708  0.2636044476563110
  0.4020083402309208  0.7527508080583815  0.0140603834050916
  0.0931981223465400  0.1277193933701775  0.9312547702017439
  0.8933873096901969  0.1203770827522616  0.5982142076593414
  0.1015232452257668  0.7440318901592063  0.3422382602925669
  0.0428387310766290  0.0002869669885171  0.9290647847042662
  0.4427631605675169  0.7493763554011903  0.2612953574002282
  0.7018911319758441  0.2444490875351443  0.3450318928515373
  0.4429889879643035  0.7498358955587657  0.9290115009495424
  0.3935425558851647  0.6236951014396009  0.6028357300384974
  0.1430417800848237  0.7494932528037005  0.2617201542548314
  0.1020852464370183  0.7504346893891426  0.0147167909401735
  0.7017443763936552  0.2458196413722419  0.6782930269915993
  0.9431135463379309  0.4999125498622922  0.2614352992775038
  0.4428184970942335  0.7503116483448815  0.5948029506162084
  0.1928122276454991  0.8746530625720910  0.2630559065456995
  0.8019804753401805 -0.0005975287681466  0.3481356066672037
  0.0020094407126041  0.2499286233501823  0.0132796855576428
  0.9019994775640737  0.4996378733777589  0.0131312312751232
  0.3428390184300121  0.5001118949558181  0.5961795249076119
  0.0431645586002045  0.2513623515711991  0.2618794552854530
  0.4015104060182772  0.7444360388484190  0.3428980091279538
  0.8017193869174966  0.4966463799054642  0.6794162564736148
  0.7934696349673596  0.3702562968354212  0.9331718765431773
  0.7430633919621858  0.7494030778213409  0.9285942019624743
  0.4929144478838942  0.3745318554526682  0.5976209532238278
  0.4429526206906605  0.2499101544661633  0.5956137474691662
  0.7430437924700773  0.5004699611958887  0.9287996320151378
  0.0428436580591007 -0.0007492540724657  0.2617870491706408
  0.7929595801944685  0.6260429989759059  0.9298892117692091
  0.1928681558035539  0.6234650398948685  0.2631121785720791
  0.7018615101868950  0.7526398804322091  0.6782592759116186
  0.4428347839603176  0.2511003508571268  0.2621241962336245
  0.9431700761989178  0.7493319636060662  0.5971824531499712
  0.9930879873095330  0.8749023223716291  0.5970595752429240
  0.0020784410773490 -0.0001369569908106  0.0141936853576890
  0.1020233460803973  0.4991938855041605  0.0144002660846779
  0.1017248334996459  0.5051477053479083  0.3445302314806986
  0.4018705454458188  0.2481032720644368  0.0134161971631321
  0.4929174803366999  0.1271239339506728  0.2624813537207510
  0.4930604279425049  0.1233184040062145  0.9305369110261793
  0.4428971101544066  0.0015306052788784  0.9285197651848399
  0.7431357728784778  0.7496512329747196  0.2635655574710165
  0.7929299430736904  0.8738442480865679  0.2643907107919922
  0.1929248934833858  0.3745193564405199  0.9291959952047457
  0.1429733905930933  0.2493928266493178  0.9286314806345326
  0.4019659334314104 -0.0008614363984497  0.6792607715432023
  0.9018596432048891  0.7539622181252993  0.6807953613339677
  0.7020822115942507  0.7499333011343965  0.3481948783840756
  0.7928969966881360  0.8750531426905256  0.5956908716139171
  0.7429555410968147  0.7501877886519154  0.5955771388738033
  0.4425998910670110 -0.0006551922462401  0.5949468507464006
  0.4429546711233217  0.0003478554661537  0.2616689142981146
  0.1930913432994601  0.3752044558268514  0.5976424356348017
  0.9931367109288904  0.8745956195493328  0.2638184885936708
  0.4930779681921317  0.3747339794626293  0.9289876881347031
  0.1928304513255515  0.6265646273086913  0.9299452615830338
  0.9935219258630995  0.6207550722412958  0.6012750088602840
  0.1428745631251325  0.5009023256056500  0.9289231092644488
  0.3422960734248940  0.5003587921483227  0.9285062552172401
  0.4930078100221794  0.6262723843581497  0.9301515745800190
  0.0020468264105542 -0.0000732813685358  0.6822916370691491
  0.3016272127369269  0.7503116503994107  0.0145142936145481
  0.8931055436472132  0.1246644881099075  0.2630566665752422
  0.4932266620023608  0.6287886870064989  0.6007342772275690
  0.4430296334396497  0.5002390066604357  0.5952806580767307
  0.9017325314549477  0.5001542590141743  0.6815643319631257
  0.7428161476115746  0.4997082796022531  0.2620031810836579
  0.9428613730606143  0.5015301086819490  0.9292637968926514
  0.9931025360169030  0.6255313618543350  0.9288837116171498
  0.4009065938178530  0.4997948118623945  0.3411248811316360
  0.8016010828131933 -0.0038377708655027  0.0095148312542852
  0.3427606239194625  0.7486201569540303  0.2630129774783738
  0.4930205864416570  0.6316558119012305  0.2661386038320130
  0.0930861996736868  0.1281015114067203  0.5993825158000227
  0.0428667625536910  0.0041869440563436  0.5961738211426514
  0.4431919492575885  0.5010937775241062  0.2617635442669766
  0.7429345161340394  0.5006916158039710  0.5956137470269901
  0.0020048188754894  0.0003796642528709  0.3465137658557952
  0.7929446291041387  0.6230151663294626  0.5977609201762635
  0.1928639810991455  0.6241985428298035  0.5956607045291399
  0.1016300895526330  0.2462802271375829  0.3445457521263956
  0.9018976525491236  0.7499605346156363  0.0126539074414050
  0.3433168098398626  0.7482529120540915  0.5968424524702108
  0.3929074147972414  0.8725020692120312  0.5976582754937442
  0.3013379395086861  0.5065591666958111  0.6759936141537362
  0.3929571059918080  0.8777896591963260  0.2651960815420102
  0.7927231578414792  0.1261318602708872  0.5956422707339536
  0.5017109355146125 -0.0044293219711761  0.0113877791903040
  0.8929168409430494  0.8763976348305690  0.9297181869009488
  0.8430046178779815  0.7504348765929822  0.9301672378272042
  0.5432841914248637  0.7491989230985395  0.9302100032796697
  0.5928791384226602  0.8745043623668514  0.9292061442925672
  0.8019234274817041  0.7494647987759979  0.6817608326108373
  0.2932255829573338  0.8703159461435349  0.2654560923868465
  0.8021877307815766  0.4988293219098623  0.0147844536579940
  0.2427782771858371  0.2496123833379706  0.2621199670623007
  0.8938919337103455  0.6243885885816501  0.2673709102728102
  0.2014087265419102  0.7543744627164897  0.0102949969008192
  0.0430655677349738  0.4993995649300482  0.9299988488323485
  0.0928706132431300  0.6253987837604866  0.9293504381641163
  0.0928938959784612  0.8749105339053723  0.9304940153093446
  0.0427910094710138  0.7506101189564366  0.9286582675905486
  0.2926054584436847  0.3733200317678130  0.2617174989240069
  0.2017875194459611  0.7497485187311578  0.3476632434676799
  0.6432560796078525  0.5009356572900027  0.9301053992571438
  0.6932161945558741  0.6310722317540559  0.9334020460029612
  0.2926912479392689  0.8761655532903552  0.9290133688200165
  0.2427760218777102  0.7507542307663282  0.9296978481772609
  0.5017407189119204  0.7536061328847808  0.0113741269365060
  0.2927048399815681  0.1242515186524296  0.9289739203053956
  0.6932093802356549  0.8754945516734016  0.2625859495656572
  0.8929177040880013  0.3746699325823405  0.9294644128221909
  0.6430016601738973  0.7525965931984255  0.2622879662315141
  0.9933112362412517  0.1301284610748885  0.2659177488633666
  0.9430020984659897 -0.0011020529762160  0.2620546614154821
  0.5430627717288581  0.7498946497821057  0.2625558677538056
  0.1020346685236613  0.0003311239642144  0.0135541753056813
  0.9017884009595293  0.0029162483669363  0.0123540787126191
  0.0431567833740599  0.4989362178063018  0.5980403077994340
  0.2019730975230482  0.2495736828448668  0.0144183108726808
  0.5430138743011687  0.7493360175482631  0.5965382861728462
  0.6021101177124605  0.5012676492407148  0.3466357434421208
  0.5429363634315811  0.5001082180538723  0.9288186824107815
  0.2426631009381842  0.4996112266260245  0.9289862716703454
  0.8936403119199255  0.8800959141935213  0.5999150399442389
  0.8016408634560670  0.7550209688794004  0.0107916714141296
  0.2015085904931145  0.4948951810078418  0.3442126610516113
  0.2426421207355962  0.2491413958264927  0.9293983277062254
  0.2926624668454930  0.3751154588422206  0.9293867605400200
  0.6431859676911267  0.2503948019694888  0.2631493713720710
  0.2929987033284088  0.6298898800592945  0.2636308236909826
  0.2017613193946061  0.2493343891113674  0.6806129868622857
  0.2427892936990975  0.5009243863679719  0.2619779951346185
  0.2018802103742465  0.5001951633978499  0.0136798195199116
  0.0018309143128065  0.7462914544998109  0.3448791915048004
  0.8926770424445161  0.6247274399426388  0.9272423491861420
  0.8428408894100217  0.4997342967532475  0.9288756371015298
  0.6017036470995603  0.2514463604255746  0.6789049590866091
  0.6931696747517726  0.3735464736524233  0.5969910254224297
  0.6431546022326771  0.2495412187577196  0.9288718782678139
  0.8431481477395331  0.7516818489562739  0.2620305436814716
  0.8931486139754710  0.8715255534505564  0.2641547919435733
  0.2427348400012546  0.5006092025023342  0.5959313110779498
  0.6017615792501783  0.0067758831652117  0.3436802089596748
  0.0019294353272189  0.7478945179270660  0.6809429380049308
  0.8016528257784632  0.7450739773640994  0.3444346920856425
  0.6429133496214435 -0.0000911297618687  0.5961368508971446
  0.2427018521213443  0.2503803620180146  0.5952661612446573
  0.8011256306732085  0.5012970354422143  0.3416842355615735
  0.2018461592373727  0.5000595082142690  0.6814150054626341
  0.6017961898896483 -0.0042668438733585  0.6783539086713464
  0.6930405522666296  0.6251991159996145  0.2630540735262120
  0.6432587719037686  0.5002776325081768  0.2630446425605037
  0.0021210878138063  0.7505305356555266  0.0142846604422328
  0.6429386532298279  0.0004773865645395  0.9286586706509576
  0.8429909482884053  0.5016890369236036  0.5967823393856719
  0.0429122470285931  0.7505341334897818  0.2625088756912901
  0.0929855724318496  0.8766279999869779  0.2627741615436124
  0.2016600282696073  0.2553668279701658  0.3452243922179589
  0.3017532320658515  0.5000415329915117  0.0156490407104019
  0.2016417273895165  0.0007457285215460  0.6800339724488130
  0.5021099389972956  0.4997771650802387  0.6802847672407859
  0.5011816401446166  0.0009408205308805  0.6741600400704405
  0.9932680893035801  0.3795610244566218  0.5981234925884232
  0.1016764467203097  0.7532415866567053  0.6793971111539814
  0.5430960787885272  0.0002471616316355  0.9287231626186848
  0.5930649130602353  0.1291678674149551  0.9314516918837062
  0.9018823317057413  0.2494257708035980  0.3450699742300111
  0.0941362097458929  0.3730561884192359  0.6023804565756933
  0.3017481841809405  0.2491957764786966  0.3464239378239140
  0.6433001263706285  0.2515590047495796  0.5975052350898826
  0.7433467062921139 -0.0002184273791867  0.5954696427941556
  0.5430430884701274  0.2529099839604701  0.2626556421643375
  0.5933333853988602  0.3706827819105405  0.2650249521001786
  0.3426890933004643  0.2524820110403731  0.2619300583875334
  0.0019079547072688  0.2506015623595995  0.6817839021243396
  0.1427408910149196  0.7493057433911253  0.9298579594507562
  0.1015606802598825 -0.0026151294587474  0.6785005560047629
  0.3430130749465027  0.2500663283354956  0.5961002690985280
  0.3935903161648694  0.3772220253501066  0.6028133165685263
  0.7430034247383385  0.2499504167908338  0.2622631778472657
  0.9929222480920650  0.3744106623779659  0.9287490687693700
  0.9430193676320743  0.2497684494009949  0.9297176927906647
  0.5431012085908445 -0.0008187776154559  0.2626557339372123
  0.8017891941884538  0.0000351082788230  0.6816019295781233
  0.3426539336296751  0.2494158548123123  0.9292573440719143
  0.7022780952979754  0.2498776688715008  0.0144035241647705
  0.8429101839964741 -0.0013126312898022  0.9293516324475940
  0.1927400424853452  0.1246466024297975  0.9299061301591802
  0.1427415198164534  0.0001573377079131  0.9296373785350047
  0.1930854570441093  0.8755103570496817  0.5948335861743138
  0.7931686392883537  0.1293441960832653  0.9331069770233880
  0.7430797239284562  0.0000483269421037  0.9286521860384729
  0.5432367283847410 -0.0000469270019154  0.5952142830985889
  0.5930601617570371  0.1253348313516803  0.5981377889592090
  0.8432273462005879  0.2498962938529220  0.2626251843651728
  0.6021483847757156  0.7496172971888571  0.3477381631946120
  0.9937228707064291  0.3736362073940303  0.2679400909294895
  0.8932957836756160  0.3790173010489370  0.2648729616426970
  0.0017519220994807  0.5000618343399004  0.0125747333535703
  0.8926973697040490  0.3744669164986119  0.5943982402075704
  0.6018585980378875  0.7544994535637339  0.6785984446648219
  0.3016693804740082 -0.0024770193944786  0.3453917791956733
  0.2429404595953322 -0.0021337494767521  0.5958495077738084
  0.2938075381985427  0.1219270542168913  0.6024473403258896
  0.5930744233501036  0.6253874059629173  0.2625038023392454
  0.5429194427578499  0.5007353109272511  0.5961602529622865
  0.3938660779877715  0.1260019574591131  0.2679494555363175
  0.9428783145877099  0.0006899130131935  0.5954815736471915
  0.1929941501574615  0.1258739941394104  0.2629934109423006
  0.1431076792405112  0.0019087572658596  0.2621056370610259
  0.9021338202513266  0.0003421534281557  0.3462628089169603
  0.3018174142226167 -0.0002675645596574  0.0156798957119667
  0.6429757590706150  0.7494685880461988  0.5955042759861658
  0.6429426893595657  0.7492897794298402  0.9291615084333453
  0.2928283517332931  0.1249854416777511  0.2625539533854924
  0.5018291806587001  0.5005962043363471  0.0136499752112276
  0.7019730143346398  0.0040643955085429  0.3469112109775067
  0.2015433203439838 -0.0040796137415738  0.0114195577479915
  0.1929856264360628  0.1244362135202721  0.5959253163667012
  0.3930073018135627  0.1209850393253926  0.9309006330682301
  0.0428345064518950  0.2502651128762143  0.9299464068884982
  0.3426840525367358 -0.0014690050277331  0.9295647915932522
  0.2428351546822703 -0.0013123962111034  0.2637804750650173
  0.7929120736879318  0.1255091144323258  0.2632711086875177
  0.7432846568425708  0.0002354655074828  0.2634783464627871
  0.5016885172475241  0.2449216221029319  0.6771104254307279
  0.1015484745887704  0.0048160332744234  0.3432401305084269
  0.5428697343885885  0.2490623929739880  0.9283676696634884
  0.3929041848072493  0.1285378436353951  0.5978375836467238
  0.9930233505836930  0.1251145713687546  0.9295860157729694
  0.9430347323132159  0.0005147814705846  0.9297590330753844
  0.9429798427486429  0.2496985458971256  0.2611813722456544
  0.9930796427651952  0.8750963831520694  0.9297755089318437
