26
Lattice="12.12776649 0.0 -0.00117028 0.0 4.05070973 0.0 -2.09132204 0.0 7.3445026" Properties=species:S:1:pos:R:3:momenta:R:3:forces:R:3:energies:R:1 energy=-129.02862548828125 stress="0.0012601910857483745 -7.407071279885713e-06 -0.0013622099068015814 -7.407071279885713e-06 0.010294833220541477 -3.2680492267900263e-07 -0.0013622099068015814 -3.2680492267900263e-07 -0.024715183302760124" free_energy=-129.02862548828125 pbc="T T T"
Al       4.25121745       1.90656981       1.02562863      -1.93977446      -2.67853466       0.34608401       0.00040412       0.00028069      -0.00025511      -4.01595427
Al       7.96271476       1.90684339       3.99983676      -0.25476697       1.12450193      -3.18527661       0.00013029       0.00052911       0.00049700      -4.27993967
Al      10.48077383       3.93226048       4.26921981       1.10676497      -0.12176672       1.62790331      -0.00010485      -0.00023164       0.00002071      -4.16409375
Co       6.27774017       1.90674495       2.28916821       4.05616768       0.30825303       4.00779747      -0.00005003       0.00026702       0.00032172      -7.06493521
Al      10.18001269       1.90684590       2.28767420      -1.20355978       0.30947357      -1.57230885      -0.00067231       0.00015603      -0.00045151      -4.09770466
Al       6.21540336       3.93221950       3.67188786       1.30709628       1.70152529      -2.91169384      -0.00021544      -0.00053446       0.00013152      -4.30474760
Ni       3.85839807      -0.11856123       5.00892876      -2.23181995       1.16245513      -1.05381911       0.00017180      -0.00033776       0.00062531      -6.45746708
Ni       8.52336194       3.93236019       2.67642421       1.78967960      -2.46181144      -1.21274074       0.00047393      -0.00052822      -0.00044496      -6.48924780
Co       8.19120535      -0.11852418       5.31615163       4.04259950      -0.47846603      -0.14550844       0.00025366      -0.00004386       0.00017685      -7.51011324
Al       6.58591530       3.93209441       1.07749467       1.02357082      -0.70781776      -2.12090206      -0.00011566       0.00002858      -0.00022496      -4.13650681
Al       1.28495288      -0.11876567       4.40097601       2.02931886      -1.02030886       0.54410361      -0.00040872       0.00025973      -0.00028764      -3.98268463
Co       4.03843710      -0.11873886       2.32760886      -0.67442006      -1.76479615      -2.07807136       0.00029552       0.00004222      -0.00000115      -7.36464643
Al       2.18553187       3.93190716       0.81188595      -0.13549733      -1.04058371      -2.62396667      -0.00036691       0.00017872       0.00000988      -3.99204470
Al       4.14675583       1.90661738       6.52035059       0.17027453       0.07249431       1.92951104      -0.00005412      -0.00001693      -0.00033674      -3.98980166
Al       8.33473750       1.90686054       6.57880177      -3.72965070      -2.96629002       1.26456847       0.00069050      -0.00034846      -0.00004530      -4.14772941
Al      -0.10132524       1.90657910       6.10507050       1.61945121      -0.17577983      -0.37122392      -0.00002952       0.00025578      -0.00027525      -4.01919295
Al       2.15044175       1.90653676       2.69078168      -3.78826690       3.45891473      -0.33265232      -0.00030945       0.00020352      -0.00037625      -4.00248124
Al       2.22979656      -0.11881007       6.72426267      -0.78221475       0.79048784       0.96679919      -0.00004300       0.00015348       0.00002573      -3.63393761
Al      -0.06407844      -0.11860899       2.16559783      -1.46179474       1.46979179       0.26369796      -0.00019547       0.00008023      -0.00081917      -4.04656936
Al       7.61290153       3.93225588       7.98815565       0.39669624       0.72620082       1.40663556      -0.00015046      -0.00005988       0.00043027      -3.73638202
Al      12.14853203       3.93213168      -0.52633803       0.89089065      -2.97587744       1.86144758      -0.00023130       0.00000879      -0.00001530      -4.06307484
Ni       8.26591066       1.90692349       0.66739161      -0.64328380       0.07906047      -1.65073257      -0.00008672      -0.00029421       0.00006899      -6.46387148
Co       0.51810862       1.90675768       0.82845357      -1.07838426      -0.20283441       3.14050531      -0.00012264      -0.00017043       0.00056035      -7.42909670
Al       4.49492504       1.90678856       3.84661376      -1.21202471       3.08552789      -0.27642421      -0.00000131      -0.00005048      -0.00011889      -4.16798188
Al       5.95768216      -0.11901035       6.16340189       0.32611844       0.52960960       3.75569031      -0.00005854       0.00038385       0.00030731      -3.88411810
Co      -0.00839973       1.90673363       3.67334499       0.37682954       1.77657071      -1.57942298       0.00079675      -0.00021149       0.00047676      -7.58430338
