Al Co Ni
 1.0000000000000000
    12.1277664900000008    0.0000000000000000   -0.0011702800000000
     0.0000000000000000    4.0507097300000003    0.0000000000000000
    -2.0913220400000001    0.0000000000000000    7.3445026000000002
 Al  Co  Ni 
  18   5   3
Direct
  0.3746268157053840  0.4706754948566561  0.1397054510224262
  0.4609578184814746  0.4707294987670345  0.5238139899088086
  0.9893815797297471  0.9707266002138367 -0.0715065684012477
  0.8153004320406790  0.9707572602888215  1.0877673020100014
  0.0455634873093115 -0.0292810384561919  0.2948669602977516
  0.3417464609640488 -0.0293306785809431  0.9156049053691523
  0.2404987591705493  0.4706673372463073  0.3664050899126192
  0.1349892184684489  0.4706777880902953  0.8312650705828654
  0.8417303665614320  0.4707472680463506  0.8958791608791874
  0.4950267108630361  0.4706872393490610  0.8878654226774911
  0.6359705012078953 -0.0293801232660646  0.8392870814770370
  0.1992765966029165  0.9706711709592994  0.1105751073813554
  0.2092871360743703 -0.0293197194655477  0.5992537786031191
  0.5683583725154745  0.9707173978040499  0.1467982059030477
  0.5987219834853765  0.9707482785672759  0.5000459167642548
  0.8931337634626638  0.4707436538182437  0.3116234746192059
  0.9644596141088151  0.9707583950173490  0.5814346770464791
  0.7505013164045237  0.4707430347894701  0.5447223963152870
  0.8002485910274312 -0.0292601015967807  0.7239548316342423
  0.5713965070185979  0.4707187316894919  0.3117756271479796
  0.0621737451909087  0.4707218757874670  0.1128090458445639
  0.3876513423159869 -0.0293131012289608  0.3169802841944719
  0.0855558377448033  0.4707159378199974  0.5001625454043777
  0.7656578598650570  0.9707830113524701  0.3645339094619129
  0.4357619060103705 -0.0292692493700975  0.6820664373723947
  0.6972578583445336  0.4707628098613461  0.0909806462165572
Cartesian
 -0.0070617961615192 -0.0097512706519420  0.0012599272827955
 -0.0009274853516304  0.0040937766465599 -0.0115960770628477
  0.0040292048389708 -0.0004432947045147  0.0059264216317653
  0.0067606207027524  0.0005137809809718  0.0066799996089652
 -0.0043815886761066  0.0011266460713070 -0.0057240286429021
  0.0047585158450251  0.0061944442314878 -0.0106000923268228
 -0.0037350854094292  0.0019454388320060 -0.0017636298948110
  0.0029951368477751 -0.0041199900458741 -0.0020295948412019
  0.0067380059212242 -0.0007974836410270 -0.0002425263146609
  0.0037263345084952 -0.0025768278044934 -0.0077211956080902
  0.0073877847110885 -0.0037144592456689  0.0019808224301511
 -0.0011240901720967 -0.0029414753802165 -0.0034636270864708
 -0.0004932813155702 -0.0037882703465339 -0.0095526145457182
  0.0006198885566712  0.0002639173150001  0.0070244319383442
 -0.0135778841703435 -0.0107988510619670  0.0046036923086245
  0.0058956515685464 -0.0006399307593741 -0.0013514497081066
 -0.0137912779003636  0.0125922632835238 -0.0012110288564336
 -0.0028476718427035  0.0028777902324205  0.0035196559987285
 -0.0053216993424736  0.0053508128049157  0.0009599988434672
  0.0014441823084420  0.0026437517688544  0.0051208909893220
  0.0032433091003095 -0.0108337542805644  0.0067766452439696
 -0.0010765742638548  0.0001323124771905 -0.0027626005983702
 -0.0017973978246481 -0.0003380744195776  0.0052344397161311
 -0.0044124054789045  0.0112329394272057 -0.0010063290741696
  0.0011872421316453  0.0019280566388925  0.0136726820213609
  0.0006280809349495  0.0029611006424677 -0.0026325045075655
