Co Ni Co Ni Co Ni Co Ni Co Ni Co Ni Co Ni Co Al Co Ni Al Ni Al Ni Al Co Ni Al
 1.0000000000000000
    19.8195699800000007   -4.0490845899999997    0.0219375100000000
    19.8178452400000005    4.0407286400000002    0.0208262800000000
     0.0251626800000000   -0.0032874400000000   23.3380670700000010
 Co  Ni  Co  Ni  Co  Ni  Co  Ni  Co  Ni  Co  Ni  Co  Ni  Co  Al  Co  Ni  Al  Ni  Al  Ni  Al  Co  Ni  Al 
   4   2   7   2   1   1   2   3   3   1   1   1  12   1   7  81  16   2   5   1   2   2   4   2   4  98
Cartesian
 14.1439439620601597  0.0006063780426018 -7.4413829856194038
 -1.9618516787386791 -0.0133198468727694  4.1296247209532053
  1.9911545578470904  0.0059556670497401 -7.5387149378753007
 -11.8309843858021821  0.0003143268809116 -3.0764951823508668
 -6.6130407869418111  0.0028493376593267  3.7968522929672619
  6.5754465446050894 -0.0029854868538945 -7.9111465390853244
 15.6513351266112242 -0.0227656620404086 11.3233042326925482
 -1.9042381171778158 -0.0112773947479513 -10.2039006086630106
 -0.5784189288266749  0.0032638315403381 -0.3563622520729243
 -4.3496086892517987  0.0026470808363139 11.3939198603296408
 -0.5300234280741790  0.0009269559025356  8.6061372331243806
 -4.2194872978318818 -0.0012258606867170 -3.1703755026394909
 16.3751067427470289 -0.0038564542542205  8.4792794109307668
  0.5603995742272736  0.0055137331857167 11.3036796843973164
 13.9008457423650533 -0.0036050814260398  1.5954804379013401
  3.2501967614638603  0.0028860374575968 -2.9891903684443486
 -14.0027842886496252 -0.0115788135607701 -10.1086691159751094
  9.5974183087442846  0.0109246388604828 -7.5844508517173344
 -5.7168089767374024  0.0071191092981617 -7.6107750290499556
 -11.6254228165940372 -0.0266345265897496 11.3603314005330880
 -9.6011411202324624 -0.0178823678895091  3.9242288916692605
  4.1075719362276999 -0.0061243992107290  8.3507255851826923
 10.5679727638540726  0.0213989463625033  4.1616848100813790
 -7.9744791649582769 -0.0004874078144537 -0.3245548301772340
 -7.9943096455291149 -0.0627911603212488  8.3877504696953924
 -15.5800816809439873  0.0089903818649695  8.7486331443346401
 15.4762103752020543 -0.0014342112837352 -3.0524523368598526
 -14.3399697378992173  0.0080578125874707  4.1570905279695021
 -10.4584096979508541  0.0039880175454952 -7.5881173458701232
 11.6277184754392380  0.0029222293196501 -0.4371889376199061
  4.1233862072666900 -0.0055191018569287 -0.3474365622676257
 -18.0481409481150443  0.0061095461712609 -7.6389066744936303
 19.4684815521414798 -0.0018752140620925 -0.3927464390365601
 -15.4756260414178097 -0.0021525754260302 -0.3300134400695564
 -17.9119577191222774  0.0096583400700762  1.2571142645799440
 -16.4039588629410389  0.0007067173465804 -3.1974105749425314
  0.3373928154264528  0.0025308883208393 -3.2257381467182107
 17.8697817282809659 -0.0095700114346030  4.0307091497050491
 -3.3193501018541247  0.0087599335763568  8.6933259413762833
 11.7153287649939593  0.0697710531925786  8.7755296937172229
  5.8256287517901191 -0.0029944368910852  3.9051990334446538
  1.8035376840395732  0.0056785700147601  1.4866037622832189
 -19.3269973995315212  0.0095520693778287 -3.0937318202659747
  8.0367104684555528 -0.0074749948005613 -3.1898372394345316
 17.9158048279499802 -0.0123186065190339 -10.4093057342276012
 -19.4866412457162532  0.0023773868975908 11.1623512386448258
  7.7736230385221203  0.0023327978497301 11.3946797300078391
 19.3896649062547013 -0.0034132788525760  8.3967150914614912
  1.7757778544145904  0.0054608303215589 -1.0705860939717811
 17.8884036511182494  0.0037306390994897 10.4453378526096436
 -1.9137965182714607 -0.0106346835680851 10.6528831707586740
 -4.3751119207234614  0.0037586811753889  4.6242894152839122
 16.2197525603193000 -0.0117192831437939  2.2102857930476056
 -14.0892978445764374  0.0033475333444050 -2.3400103944984134
 11.8350497279392641  0.0056610300880228 -6.6308238805886646
 -13.1562652027849882 -0.0224156999662961  9.2638714522454073
 17.9532533650160389  0.0041538508377294  6.4557434955664137
 -2.9957200295856827  0.0064342413535343  0.2448359744608020
 -10.3141361854577465  0.1481554148628716  9.3649560389958815
 -9.5176854444477463  0.1295484290570412  6.4683442750402653
 -17.9816379709362479  0.0026397195283425 -5.1783492649167098
 15.5216135648464082  0.0016174730849950 -9.4775455319722308
  1.9143051948064784 -0.0034762509326397  9.2187353431737229
 -16.3018368223477772  0.0029465740959097 -9.4502181616495573
  5.7329677433124449 -0.0012229054730973 -2.3082145066304234
  4.1768775212277678 -0.0207719427277838  2.2029494150860880
 -17.9151214207901752  0.0037303324186716  9.1708960789660274
  6.8009493995188892 -0.0108410676910023 -5.5003511567332701
 11.5853287240915162  0.0067382571297653  2.0608134814621568
 19.3729331206492645 -0.0050840964045649  2.2066493998397743
 -1.9140293694389168 -0.0066601110394818  6.4909235099700267
 -4.3085655098836275 -0.0117812230754832 -9.5044616909055932
 -5.4016454442274267  0.0020182642332220  1.4404709476870505
 -14.8085001438340296 -0.0032357857050086 -5.1093146678827859
 -19.3467093663700744  0.0003604107891114 -9.6174500609636073
 13.1118517203746343 -0.0120194969685773 -2.4090267169710553
 13.9798508145425178 -0.0057373948072001 -5.0011328644065101
  5.7289621857858952 -0.0078736885666329  6.5027390320521494
 -1.9627460132567833  0.0045875685258446 -2.4197249731875750
 -0.5369711938555510  0.0041795570685024  2.1684224994529790
 -5.7869795055760846  0.0418737097212561  9.3521386163898690
  5.5582053394114554  0.0056030056615620 -10.6828438895573363
  8.0977343414013401  0.0233630853025274  4.8883649105419389
  8.1819101095461431  0.0128867146727830 -9.6434331081785984
 16.5157765052657517 -0.0073251666753198 -6.0955686516551912
  1.8412113862458912  0.0026842552789920 -5.1630896506665174
  0.3524248025654074  0.0013321030529798 -9.3871743869422559
 -13.6082152888756500 -0.0081273587501559 -7.5202925873217756
  9.3677239435787563 -0.1424899497199011  9.4326186155192850
 -11.8546923054060009 -0.0188736130910160  4.8738698471674260
 -14.1450794753367326  0.0066679131201404  6.6015624348272670
 -8.0476153018415246 -0.0093567411010076 -4.3528083592218332
 -16.6545303034876611  0.0099106354039707  4.9292459969887270
 11.6185628697604049  0.0029011129373226 11.2523508606144702
 14.7723537029209382 -0.0071672255330059  6.5745762407597788
 -8.1244312333018911  0.0171734319105801  2.0440267144958901
  2.9949479804656716 -0.0062785896519716 -11.4598546070471130
 15.1503483620516999 -0.0062928445937307 -0.4724803816246617
  9.5735403689137506 -0.0073875134346237 -5.1099572559957878
 -10.9762687240485661  0.0027874709148008  1.8770680020590242
  6.5151621577702112  0.0171922682220518  9.3110868301169933
 -9.3173116093823189  0.0004767801338436 -11.1197382278391093
  2.7498967518335373  0.0041463164747998  6.3081671710935252
 -13.0719267222723872  0.0063313373979553  0.2744996241805101
 10.4659798050927808 -0.1261709843932873  6.5447654380042115
 -2.0503603288878516 -0.0054080022762456 -7.6980637660094233
  7.4017019060440727  0.0044203941614866  1.9978253354501219
 10.4002592618045977 -0.0113575770159685 -2.5297496231673566
  4.3586017671323996 -0.0039255518895038 -6.9990815792870285
 -11.7387251876521379 -0.0012229333643858 -9.5953277094012890
 19.1724867208357495 -0.0034328968210149 -6.7580644852229428
 13.0994558839702222  0.0060545035108567  4.4691386111634417
 -11.5803950118647112  0.0060342608381392 -5.4897132417494037
 -1.2894791802137000  0.0004100203069926 -5.1472797388925500
 11.5349565614660889  0.0018047089789262 -9.3895943362397816
 -5.8559367727481684 -0.0097149984424814 -1.3855404563118863
  1.4427381481160684  0.0055397983229010  4.0382756354138332
 -6.6776050950239432  0.0044825357498410 -10.9664456964185764
 -10.2649696895461773 -0.0071672086346492 -1.2400062166430421
 -8.0673687519164936  0.0159931591413392 -8.1835047832157208
  8.9926805509498653  0.0013343041077811 -0.1561113086822226
 -4.3971298437076944  0.0030890234681332 -5.5658364035374523
 -17.8400356130927982  0.0025042747001709 -1.1704945314777544
 17.8605442280336533 -0.0018278116800432 -2.4131943075752935
 -15.5319175135223020  0.0157093850322602  2.1189084736756421
 -15.3872241865216903 -0.0026490049187466 11.2097600670049076
 -6.6651321208747127 -0.0009621815123236  6.2972775306494118
 -18.9308546734212904  0.0103499441596779  6.2074653937346191
 14.0295457595556581 -0.0371358490911145  9.3722765896548612
  1.9582857223752939 -2.0156821908271705  5.3428058934818115
  1.9471160000665890  2.0306324705924217  5.3435507685473160
 -8.0701758640202588 -2.0077012971818826 -10.7725597123596444
 -8.0852351182543671  2.0201162370169148 -10.7948928096517456
 -5.7225638738723861 -2.0000062816826905  5.3945155080593645
 -5.7458491530416405  2.0165338635688155  5.4023791453243284
 -1.9366310404407847 -2.0260359001846897 -6.3556426747399524
 -1.9424805472866462  2.0166880935063705 -6.3544577041011978
  4.1670256643575856  2.0354154622039080 -10.8879208524060580
  4.1770702997999019 -2.0319666425158416 -10.8871101565755861
  8.0204301262337108  2.0372875663393950  0.8933808821104366
  8.0210998218839116 -2.0328203606859723  0.9025104884406198
  5.6783040565519958  2.0007994766200130 -6.2854412874315120
  5.6843342164843609 -2.0250508058638852 -6.2876596197108077
 -4.2546628759913894  2.0369779077833381  0.8025519073138585
 -4.2548839668893041 -2.0363916901797352  0.7956841344505704
  6.5816507519504750  2.0179483157762865  5.3474256006700394
  6.6278427384214398 -2.0281305171759350  5.3975853932395355
 -10.2970934951831818 -1.7668306442524648 -3.6414867864006313
 -10.3075231110789325  1.7611075059899532 -3.6414840928827967
 -9.4182467921691444 -1.7673609845376927 -6.3219314535081486
 -9.4166139581305224  1.7710294358142999 -6.3185431434303627
 -9.5455650514783397 -2.0287910064685284  8.0914075579215066
 -9.5801534785996321  2.0383748448146459  8.0414051265592281
 -8.0770648870614661 -1.7792926984626307 -1.9591097613686976
 -8.0799102662669160  1.7651068532755838 -1.9614781410013196
  5.6932489575005523  2.0110110838948270  8.0714908016814331
  5.7467413271934822 -2.0217107797655181  8.0617823405270528
 -6.6273207957106210  1.7545266172349192 -6.2654250031412788
 -6.6076133302775348 -1.7443449180271700 -6.2545641964913736
 -5.7860023099848643 -1.7720982856717260 -3.6013343533687445
 -5.7942494160597944  1.7631147975090591 -3.6084591450884722
 11.7795158887733447  1.6323784013832716 -4.3496345645622450
 -8.0514937886589664  2.3868208218801064 -4.3568100244123791
  8.1250289074600914  2.0232981264191432  9.6205357235274498
  7.9263131913738940 -2.0388078827156324  9.7248182627845736
  9.4617285779083868  2.0216229466218620  5.5528509099804122
  9.3641121850466416 -2.0149004638150418  5.3649820130112076
  7.8643306422683734  2.0115165399776482  7.2763546932764731
  7.9982502226362868 -2.0008794576914792  7.3265992276452057
  4.2574380956504845  1.5588763391026559 -4.4301008157006958
  4.2623038380649643 -1.5579083384755734 -4.4314178257103913
  0.1958375971101458 -2.0385014065422342  9.7856447763528731
  0.1836746141616246  2.0372946226951667  9.7807654255828389
 -5.5740593953225641 -2.1063578659423978  2.9641113595722133
 -5.5843941655342109  2.1089920410798828  2.9737839161118860
  6.6165890543095713  2.1785113345818754 11.6547153426102756
  6.5838228638868772 -2.2076481245892570 -11.6046289285896655
 -1.8350924739423047 -2.4067013193249820 -8.7228871419045717
 -1.8358060741315221  2.3968481228039900 -8.7168480808962610
  6.8867432382220519  2.1066308898135002 -4.0724742624502852
  6.8758963668876723 -2.1145480500968703 -4.0563921257888635
 -4.0585197518964451 -2.0263723189043161  9.8712378235649449
 -3.9939751144753708  2.0261615627646061  9.8906324199714657
  3.3751880079664183  2.3141930885067579  7.3454707293832238
  3.4038621179973498 -2.2981933334002655  7.3440601191483807
  7.9465643782376505  1.8912738392763264 -7.2903390785375448
  7.9509244974109503 -1.9008865313451135 -7.2965483610981359
 -8.1106161928986893 -1.8440289966732426  4.6036465592966804
 -8.1302590081949315  1.8595340342488238  4.5640180446580958
  1.8923421398861298  2.0245667846359936 -3.3258003795102993
  1.8952607213619475 -2.0192518303545124 -3.3276480607528556
 -0.5839490542563170  1.9925179317357566 -11.0131908462429298
 -0.5653039131487596 -1.9946889448888039 -11.0070867662603327
  1.9875995185249635  2.4816418110739913 -11.6529472989635714
  2.0026518475131052 -2.4945694317268856 -11.6577161037179593
  4.0256437372984841  2.0439426719306226 -1.7837760786933006
  4.0306919303889082 -2.0454163591148005 -1.7875614861830369
 -6.4395981064702577 -2.0924484762661737 -8.9001990398078874
 -6.4368897645297425  2.1114761468214787 -8.9292869695765020
 -3.3624705360225726 -2.4006225813446096  4.9206245133483861
 -3.3724256921261584  2.4079156462386142  4.9435309061556874
  0.5422137870980499 -1.9973003299450869  0.7011333022954779
  0.5442511053670642  2.0010896906495508  0.6958532552370063
  4.2932631751691996  1.7268917062103202  4.5443311905914721
  4.3245850810030557 -1.7390337964995830  4.5630756152746725
 -3.1898777802991303 -2.0963549311834186 -4.2365416714015049
 -3.1942140969426589  2.0934477441188446 -4.2385809785113198
  0.5195580062976911 -1.7768391863252320 -7.0767773151529649
  0.5113396523510677  1.7748125603095790 -7.0806563004791805
  2.5024148500675185  1.6338963883417448 -9.1587854636089876
  2.5101960699401289 -1.6301386543923830 -9.1566010348907660
  4.2034640296346062  1.7614674793983991  9.9659848671892366
  4.2505949971418566 -1.7725609163356992  9.9702265783243789
  5.4471461860250621  1.9236466656061488 -8.8214653809484371
  5.4549595452746606 -1.9389805727521143 -8.8199334571047903
 -7.0201027397675251 -2.2857248497144105  7.4782816571667770
 -7.2239835906807315  2.2792477787339012  7.4272878207368613
 -1.9427028180956383 -2.0507780850673591  8.2674269937462963
 -1.9464098801888619  2.0603870278824652  8.2376788630449411
 -9.3638105280306885 -1.9500233037457173  0.4112882602446949
 -9.3642104100805259  1.9607781104368214  0.4003913561220657
  5.7528041529486886  1.6101816690421427  0.2550173597909995
  5.7573892163571960 -1.6082235667029121  0.2616825015580638
  6.5418960832577318  2.2983759827449286  2.9211987883425214
  6.5752492667888882 -2.2908661157434853  2.9553421177291463
  7.7657774789053047  1.9674011757066889 -1.5639315981732513
  7.7788478579415719 -1.9761602915339704 -1.5544309246504480
  9.3614818301881080  1.7302782784421034 -11.6392081598385371
  9.3289570869391465 -1.7580964179077407 -11.6069006730519622
 -7.8534394872658275 -1.7079190678159970 10.1138513347351928
 -8.0568320466828585  1.7692113864920613  9.9866551355284532
 -6.6838308856101261 -2.1501221226012293  0.2801700255480184
 -6.6796825120015306  2.1556876871588173  0.2707909021407776
 -3.9159030092865983 -1.9252886037604124 -1.6932771224633123
 -3.9240092550120638  1.9177378766543909 -1.6916144110125144
 -4.4046809474620021  1.5658483924571966  7.2887262349692499
 -4.3465242959633370 -1.5544366741289717  7.2636486372570817
 -2.6297422006373656 -1.6549436728726785  2.5851950026284487
 -2.6432259684906505  1.6419309706815004  2.6010096780806546
 -0.4786231266228773 -2.3745207043012417 -4.4667794849390789
 -0.4803566043875695  2.3777764250433293 -4.4674898104571774
  3.2911786435555759  2.3972021486208006 -6.7976933266365727
  3.2956147616301350 -2.4028849539853523 -6.7938201193149288
  0.4955093273745358 -1.5887528976962055  7.1495724353444823
  0.4876410013554663  1.6017459144021944  7.1492654133617775
 -5.8286133615431082 -2.4359604993700619 -11.5066919083495378
 -5.8694669775153017  2.4113252088210757 -11.5866550709990843
  1.8866974645089909  2.3998681570184801  3.0071555322922832
  1.9053610957767437 -2.3811110914796489  3.0036606946031004
 -0.2626703985330224 -1.9925915125992011 -1.8202272537226816
 -0.2621784983112473  2.0016716099169778 -1.8202022164557259
 -4.1989882014229583 -1.9769201153866127 -7.4470649029366962
 -4.2115713969269359  1.9808882952650089 -7.4538765066953951
  9.4570194406265831  1.7608258613410066  3.0186616157292114
  9.4763582893728948 -1.7278711269701705  2.9669796196554103
 -3.2248146928211221 -2.0051484756547135 -10.9677839839025388
 -3.2497892933038788  1.9963358186030051 -10.9366665557525220
 -0.5150618708338143 -2.0590405478369482  4.5129070408150946
 -0.5275014859370375  2.0556129090885853  4.5134351065650362
  3.1683822518240445 -2.0179388306732622  0.6985140185823034
  3.1708692876677862  2.0116574532765990  0.7114444459261402
 -2.0191393062903504 -2.5041213857947455  0.1376721161131787
 -2.0208315219239319  2.5099495910371368  0.1410527401434487
 -9.7704339307036818 -1.9408732905423667 -8.9875444456962921
 -9.7851142316009962  1.9586231122876281 -8.9921615831268031
