Co Ni Co Ni Co Ni Co Ni Co Ni Co Ni Co Ni Co Al Co Ni Al Ni Al Ni Al Co Ni Al
 1.0000000000000000
    19.6769122839912676   -4.0546553648919206    0.0216197871477087
    19.6756805936450476    4.0486238080293759    0.0200803389188032
     0.0244780796582912   -0.0045430982759417   23.2254506445579096
 Co  Ni  Co  Ni  Co  Ni  Co  Ni  Co  Ni  Co  Ni  Co  Ni  Co  Al  Co  Ni  Al  Ni  Al  Ni  Al  Co  Ni  Al 
   4   2   7   2   1   1   2   3   3   1   1   1  12   1   7  81  16   2   5   1   2   2   4   2   4  98
Cartesian
 14.0443552727082857 -0.0085933091768319 -7.4239572381693186
 -1.8465557802795765 -0.0035063687092012  4.1257897319076227
  1.9966483554641219 -0.0047640566452864 -7.4925176149197261
 -11.7173176959554741  0.0050306655909759 -3.0563105486276227
 -6.5730281205685417  0.0020639611856888  3.7818828767407222
  6.5470957393662310 -0.0010800386425418 -7.8772493603671672
 15.5286260339610163 -0.0201725745093188 11.2446188718518094
 -1.8963492970383551 -0.0053500206102536 -10.1655945000206724
 -0.5712065872703641  0.0031586036838725 -0.3736735741532415
 -4.2967593484217401 -0.0071079507968919 11.3358723883488519
 -0.5287809281958437 -0.0029634134596842  8.5783633283623733
 -4.2003888541813232  0.0037346478923859 -3.1569528600684222
 16.2696469128299235 -0.0060680145577011  8.4470727669956425
  0.5431905241275350  0.0075714623125301 11.2944274077227931
 13.7912467191832189  0.0001177050838145  1.6113977182056904
  3.2159336802370846  0.0028383619747565 -2.9922430421392026
 -13.8701908564100567 -0.0073580691914645 -10.0579748160420017
  9.5031433351980947 -0.0011561582770517 -7.5387647905756907
 -5.6661173413149584  0.0020258521288205 -7.5696022975879291
 -11.5843284627209169 -0.0189037267707420 11.3270413032114678
 -9.5046918525055890 -0.0115504251756647  3.9255730592137441
  4.0482975988773910 -0.0068927678609977  8.2992472382362159
 10.5031141125729750  0.0159717162354638  4.1450398864413511
 -7.9133056608001313  0.0044653169811663 -0.3062027040810658
 -7.9301125843269640 -0.0664835404712613  8.3710723123035482
 -15.5013329497002879 -0.0012600569651164  8.6949809438779937
 15.3864200145228036 -0.0016806713096289 -3.0439453225033590
 -14.2718116051946584  0.0031063948935368  4.1132558505377075
 -10.3812279582700313  0.0030281670190042 -7.5453826894661269
 11.5845636292876222  0.0024834740211822 -0.4161677143679635
  4.0820297506810483  0.0004306328668316 -0.3650533928070007
 -17.9263479405884212  0.0078194643935295 -7.5984941746510568
 19.3364481882031889 -0.0022855067200224 -0.4074493891039511
 -15.3775758299182019  0.0082085740526053 -0.3622057641191107
 -17.7790398680406163  0.0048553077338081  1.2636738152007743
 -16.2898079393007365  0.0020156026394202 -3.1834808185474959
  0.3473348512693539 -0.0022730783544103 -3.1924094143691315
 17.7319035673882084 -0.0134493523826489  3.9813283821780385
 -3.2878316953811892  0.0089759606300992  8.6511976716331098
 11.6348866486322020  0.0614695834202343  8.7325677884289270
  5.7653841636381724 -0.0003838981023110  3.8643883614562142
  1.7710074035332675  0.0022594696513703  1.4137892772735658
 -19.1730094393083128  0.0027850402480264 -3.0828855244379350
  7.9783528210315824  0.0014676639642946 -3.1557200460811794
 17.7810908752540939 -0.0040462753779072 -10.3703906778552550
 -19.3458817541029546 -0.0043945653354007 11.1193566135545652
  7.7196787535222429  0.0013446960550915 11.3445881808699394
 19.2210658717584764  0.0021635570693046  8.3929894143159238
  1.7567790637672176  0.0018253381139790 -1.0857794762921846
 17.7595673625106336  0.0012117265984434 10.3995031820464572
 -1.8930821391457835 -0.0087931901892172 10.6001602752306052
 -4.3119541253979374  0.0055936925625331  4.5796896572537582
 16.1077070372947802  0.0029413582539093  2.2054954410979115
 -13.9683101337813422  0.0042459396175801 -2.3469787988394937
 11.7374237891519204  0.0053611504385147 -6.6108932579661639
 -13.0934153463981797 -0.0203765860289545  9.2013266279509232
 17.8095321951491705  0.0349819595492850  6.4370024426315284
 -2.9841967546923267  0.0028011350631944  0.2649922812187685
 -10.2432488310725081  0.1156914537305110  9.3481835155200059
 -9.4465396989753341  0.1093075381351122  6.4640436126698466
 -17.8468667492488180 -0.0014660791892012 -5.1679731945663905
 15.4221136321463028  0.0244971007727183 -9.4350114781843022
  1.8892253371827190 -0.0042077855067402  9.1616151265098011
 -16.1781171753106356 -0.0046797183640527 -9.3993112725769716
  5.7015812750301160  0.0019379388201909 -2.3153488900471708
  4.1040241599679854 -0.0090938067344342  2.2047054478441770
 -17.7992988536707273 -0.0041254484444040  9.1249327244916429
  6.7413187287308940  0.0019770753995897 -5.4479767819351927
 11.4712796027016388  0.0153952202524435  2.0478577118733092
 19.2624143051353833 -0.0120757701622113  2.2037919512742463
 -1.8806074015041403 -0.0201811149225341  6.4657108717595220
 -4.2680118236656019 -0.0612241093613300 -9.4596831422522136
 -5.4011753142201551  0.0040521186781558  1.4101334443615219
 -14.7331368290344642  0.0081769521985668 -5.1224585882688114
 -19.2104543446349325 -0.0140310452184508 -9.5554205585307521
 13.0389833460429276  0.0029547431744823 -2.3973863155353938
 13.8769552611016369  0.0050480832144785 -4.9839752571734524
  5.6671821345388622 -0.0042417751279330  6.4538688675324245
 -1.9583137178514449 -0.0145294181417571 -2.4140259544572191
 -0.5582244089671368  0.0275214994903949  2.0815987150278006
 -5.7484306865683905  0.0623454503669090  9.3053316000142789
  5.5213236566750687  0.0022278728877444 -10.5764027547705766
  8.0445439606440452  0.0194669281828129  4.8709731461900452
  8.1580637156364961  0.0085731450541457 -9.6046712025195262
 16.3897832413059028 -0.0135913077490931 -6.0268386006784169
  1.8264561804129826  0.0054143909517285 -5.1486752771845303
  0.3508695110340520  0.0257916500250146 -9.3417885062210022
 -13.4443508843187498  0.0027727186970449 -7.4680102983818317
  9.2878503797470149 -0.1219908912381976  9.3965441029569270
 -11.7758816607994934 -0.0145447273877126  4.8259545623394517
 -14.0976914493604912  0.0074294260642569  6.5415453390980565
 -7.9871984842331019  0.0080013210012107 -4.3260398934589990
 -16.6218285739603395  0.0008345281112984  4.7782666348499436
 11.5107359044794855 -0.0005693640225951 11.2074345796231754
 14.6651160532663400 -0.0051491567795989  6.5343264040098079
 -8.0834093144258947 -0.0002603660365528  2.0393948874544505
  2.9915355576738674 -0.0121098859154955 -11.4297289528796089
 15.0499853923141877 -0.0018132610232975 -0.4716985839305515
  9.4991291072575041  0.0002731159323902 -5.0771441858874056
 -10.8981454469698171  0.0035348277855511  1.8881959858196329
  6.4450426211986240  0.0140176189994263  9.2680904359989889
 -9.2620547429810944 -0.0023644952927597 -11.0510539574230346
  2.7634719811194106 -0.0065485586400171  6.2001517918527354
 -12.9953596647237877  0.0042496698617189  0.3141634491009327
 10.4253538715667471 -0.1213942306437211  6.5145045994420823
 -2.0442885644524744 -0.0018881142141198 -7.6564123016752559
  7.3799885359258219  0.0060864690545655  1.9992489958482564
 10.3491106270795079  0.0013521128707673 -2.5063355110779235
  4.3302034864871182  0.0056148076726826 -6.9892015292425524
 -11.6284543797968798 -0.0108128566163960 -9.5382169368398202
 19.0385325991083540 -0.0024253742371965 -6.7434155938472520
 13.0431001417940085  0.0013693245454625  4.3969815724822379
 -11.4209161052504786  0.0033457868474433 -5.4290121646355374
 -1.2543036071509368 -0.0007741938660567 -5.1385055756912630
 11.4911604526514992 -0.0091902916100922 -9.3242260006925317
 -5.8390160390756360  0.0071419311379525 -1.4194487954928299
  1.0140693384815049 -0.0045804591989566  4.2342187231869897
 -6.6360576578875596 -0.0004215502860113 -10.9477880982671625
 -10.1990052966393154  0.0035997226091833 -1.2151846094297958
 -7.9936358133187149  0.0091532459519045 -8.1140251687653677
  8.9289972153750963  0.0021673879265084 -0.1917577519450430
 -4.3972337669308743  0.0171893106900522 -5.5240187915208381
 -17.7072790549921351  0.0047620067942005 -1.1608797177838297
 17.7308969352558456  0.0064001628079672 -2.4011913827612417
 -15.4363378231283210  0.0203644250013374  2.0943955037593120
 -15.2590650602249305 -0.0097391784993589 11.1478808226188892
 -6.6248132302309157 -0.0032244287188158  6.2675116615354236
 -18.7581487748557763 -0.0048423035341087  6.2523557573303403
 13.9143443092935257 -0.0590882903183614  9.3281413459911562
  1.8985968060106533 -2.0358351822918652  5.3157251496788502
  1.8982490874831008  2.0266122704633029  5.3134506718815500
 -8.0160018018618668 -2.0094512450689108 -10.7107759295163820
 -8.0317028896161915  2.0100887941079937 -10.7379519197414144
 -5.6664569237190747 -1.9996906225451607  5.3730693956835935
 -5.6917196616566095  2.0035036621228528  5.3821900762243722
 -1.9159719526843957 -2.0240791489623522 -6.3273173686138149
 -1.9207817467932331  2.0189129284401264 -6.3283375132808297
  4.1555749791007734  2.0309578093286231 -10.8415056571157873
  4.1544761804311232 -2.0443381851080966 -10.8336942952622692
  7.9807092790506271  2.0514104214872302  0.8875617770993368
  7.9833980372855287 -2.0459910367232212  0.8927983453795117
  5.6527435287810519  2.0146426280177754 -6.2486409432088168
  5.6505048053739291 -2.0093341710793222 -6.2517454801041028
 -4.2205907179368083  2.0460986979453621  0.7936091575422918
 -4.2192159829298319 -2.0399632197767485  0.7906466754437209
  6.5452529400869945  2.0217659371987757  5.3024036845564222
  6.5702784439053010 -2.0257124058557805  5.3404646825963704
 -10.2170676533484865 -1.7743959958128039 -3.5981366135516883
 -10.2164146823623714  1.7828237783086971 -3.5976417714558062
 -9.3387746635101045 -1.7620174700770916 -6.2645358474731507
 -9.3358626030378797  1.7719684844496684 -6.2688285912723938
 -9.4674780245124790 -2.0427117886221793  8.0566008893912109
 -9.5109410641322931  2.0373680470551196  8.0291683449649263
 -8.0126463903172507 -1.7625459830003904 -1.9564995855620824
 -8.0082847025566899  1.7714729194189562 -1.9593027989015923
  5.6349813087712199  2.0113737926181461  8.0121488524878028
  5.6745957362204731 -2.0182723841057051  7.9940925528284135
 -6.5690826876794670  1.7716929867714812 -6.2478876181026592
 -6.5794515467278352 -1.7444986670690525 -6.2274565423122281
 -5.7462568215825911 -1.7687436708494351 -3.6017171156684968
 -5.7407591093086952  1.7836013863512092 -3.6054092298177784
 11.6985184833870086  1.5706190344593391 -4.3134122368309669
 -7.9775459272097704  2.4883723853876818 -4.3357551908707830
  8.0356124035166072  2.0309124830023464  9.5735065735849094
  7.8649050497074109 -2.0444607453412416  9.6689245030983297
  9.3850623258938484  2.0278192234148804  5.5374347915000799
  9.3079491689135185 -2.0283608065604226  5.3596565464423609
  7.8076552621227746  2.0988074543819542  7.2443404715976598
  7.9283816921719534 -2.0637907378260811  7.2887271260275721
  4.2401450929377811  1.5644078258815968 -4.4127458432673539
  4.2480343663643696 -1.5475242997937537 -4.4144229601561404
  0.1655267065514752 -2.0343664748827206  9.7703377770252047
  0.1469355172177789  2.0353033494147432  9.7492606884428969
 -5.5224150345516714 -2.0803093419884777  2.9539064493011167
 -5.5234068083397281  2.0891004625030263  2.9620544856791318
  6.5494453063655245  2.1578927083415671 11.5957615702556467
  6.5136506154279719 -2.1856661457287805 -11.5628377178768424
 -1.8459319313953122 -2.4104299707806263 -8.6829217079573535
 -1.8074487057699844  2.4116332914291521 -8.6770896700795728
  6.8401749910959460  2.1321192969678058 -4.0532246554647733
  6.8433054088489795 -2.1283825407054464 -4.0528970779444249
 -4.0532506360201372 -2.0317660135442663  9.8152344410177896
 -3.9291559934451641  2.0256596127241320  9.8554990734615444
  3.3017346182805261  2.3014176092691478  7.3064042357574088
  3.3120739545502742 -2.3042480751551877  7.3154960283286732
  7.9067373127849638  1.9069540529366271 -7.2216227519620784
  7.9063637475245034 -1.9072270444732227 -7.2190766078402691
 -8.0421430933923936 -1.8742695626983472  4.6166396531515952
 -8.0549741058248454  1.8821377335273211  4.5766121268740667
  1.8803595757577642  2.0282014841821239 -3.3029664808364072
  1.8865067153114232 -2.0287533017070061 -3.3196239124645364
 -0.6132874080888724  2.0058957054962803 -10.9787806184191492
 -0.5531037085467888 -2.0011334691705760 -10.9348134637089931
  1.9730732451810138  2.4656027608528639 -11.5949827517059294
  1.9999018904132351 -2.5054888542486551 -11.6078155748847784
  4.0135823520974032  2.0473448846414191 -1.7946125562481781
  4.0155607870319061 -2.0439317075925563 -1.8007192414514182
 -6.3892024910151104 -2.0920942406098764 -8.8496831624143155
 -6.3667534580186569  2.0878185654403527 -8.8978424010979431
 -3.3386836564394451 -2.4125259001029251  4.8852089070232161
 -3.3339143912682387  2.4055317668983083  4.9415686580731881
  0.5326885212242396 -2.0117321685807958  0.6761202557503684
  0.5581419983913329  2.0202409482008750  0.6420005383029808
  4.2592379566291436  1.7653068474451648  4.5133860860976007
  4.2774802897867170 -1.7757775433684668  4.5310267261617350
 -3.1649228906752009 -2.0758257184963242 -4.2195631780498308
 -3.1485516186046762  2.0782630072674451 -4.2049334408559496
  0.5095480428746424 -1.7807208427869967 -7.0626347360896906
  0.5273691418325532  1.7891273557059106 -7.0608281432575266
  2.5387624507619626  1.5959380834454193 -9.1123022161097378
  2.4874031256644562 -1.6351615398664143 -9.1163195957570053
  4.1473928829313644  1.7735060502122504  9.9087480465680553
  4.2013851678688852 -1.7902529969813445  9.9077596046429477
  5.4447119801679040  1.9593632306900746 -8.7762752881829371
  5.4308475675656949 -1.9625353933112870 -8.7711736127023663
 -6.9437381291726545 -2.2811742465346554  7.4675427399623180
 -7.1573598327775025  2.2638846825326646  7.4187016507910446
 -1.9333033907539288 -2.0490775332938549  8.2702515246932418
 -1.9299244993050462  2.0563740068912741  8.1819826057697167
 -9.2990246612970893 -1.9564233568115263  0.4044009310994338
 -9.2945147344710559  1.9666743304379142  0.3970110633692142
  5.7272510882848948  1.5827728957595870  0.2525614385002585
  5.7199522160821941 -1.5927001424341209  0.2622343094127475
  6.4870581159857377  2.3099349163278751  2.8774814263675941
  6.5149563389516345 -2.2987077043146553  2.9085391510428442
  7.7139836980173166  1.9861770007741666 -1.5591910192153458
  7.7138000440780994 -1.9828089544477019 -1.5545609886945113
  9.2845705995190375  1.7538819126151650 -11.5791093351427730
  9.2531135603800010 -1.7736212813658065 -11.5449129021409416
 -7.7844303841598839 -1.7173567376951824 10.0783902641119063
 -7.9946771852734919  1.7549520820413826  9.9675070175189617
 -6.6125545571125182 -2.1457599253973205  0.2536228439387114
 -6.6137143604029855  2.1544080385209674  0.2563585940726871
 -3.9078577956971308 -1.9184407654984597 -1.6817290808179319
 -3.8956354517782397  1.9215015228952845 -1.6780779201042095
 -4.3875315577828573  1.5837110426569418  7.2789269944815089
 -4.3017015742028883 -1.5542402849259731  7.2246631263839012
 -2.5769623482519979 -1.6596079848706484  2.5855632341551158
 -2.6009016507347136  1.6718305123051116  2.6132127581146762
 -0.4809629853947364 -2.3966209931073870 -4.4478305228752175
 -0.4716479785789940  2.3965413240250397 -4.4594144224210739
  3.2781374503896821  2.4056013786353523 -6.7869635124384935
  3.2619311322864206 -2.3831683091078100 -6.7768361179772683
  0.4898966392386217 -1.6266924736460593  7.1519578239837616
  0.5006870771070517  1.5948639829433671  7.1430170575306979
 -5.7873129498789897 -2.4558806759901262 -11.4357462315316205
 -5.8353006660754847  2.4175380743917305 -11.5446774192868258
  1.8975018542659794  2.2145419487154383  2.9486712862922055
  1.9140178641060062 -2.2166536621257866  2.9522177132066836
 -0.2423284148324907 -2.0056696289912441 -1.8159566926153221
 -0.2743229974456172  2.0050565196370433 -1.8298731567207349
 -4.1702994391388843 -1.9854636658233451 -7.3704797324655544
 -4.1589218154196237  1.9779661684702508 -7.4221695154948373
  9.4009093831391777  1.7782248712697097  3.0159464732925847
  9.4134055673809609 -1.7428116846423067  2.9618474564445849
 -3.1730396374092487 -2.0170938317240426 -10.9663683217629959
 -3.2471821445337428  2.0017264897738021 -10.8660567433963653
 -0.5372898962125618 -2.1610576667543357  4.5210730481866666
 -0.5436190626533428  2.1496730463360123  4.5344317993473107
  3.1337280643580736 -2.0214635531855016  0.6424324136256645
  3.1549435149563401  2.0283435237802050  0.6607987087472698
 -2.0085812992655465 -2.5181749924728516  0.1230256739318783
 -2.0010543709443835  2.5143800202903859  0.1435924227879849
 -9.6739873431518237 -1.9548513069873759 -8.9263472068799246
 -9.6863653666372667  1.9558199323729237 -8.9342642565726180
